*SENSE:Maximize
NAME          MODEL
ROWS
 N  OBJ
 L  C0000000
 L  C0000001
 L  C0000002
 L  C0000003
 L  C0000004
 L  C0000005
 L  C0000006
 L  C0000007
 L  C0000008
 L  C0000009
 L  C0000010
 L  C0000011
 L  C0000012
 L  C0000013
 L  C0000014
 L  C0000015
 L  C0000016
 L  C0000017
 L  C0000018
 L  C0000019
 L  C0000020
 L  C0000021
 L  C0000022
 L  C0000023
 L  C0000024
 L  C0000025
 L  C0000026
 L  C0000027
 L  C0000028
 L  C0000029
 L  C0000030
 L  C0000031
 L  C0000032
 L  C0000033
 L  C0000034
 L  C0000035
 L  C0000036
 L  C0000037
 L  C0000038
 L  C0000039
 L  C0000040
 L  C0000041
 L  C0000042
 L  C0000043
 L  C0000044
 L  C0000045
 L  C0000046
 L  C0000047
 L  C0000048
 L  C0000049
 L  C0000050
 L  C0000051
 L  C0000052
 L  C0000053
 L  C0000054
 L  C0000055
 L  C0000056
 L  C0000057
 L  C0000058
 L  C0000059
 L  C0000060
 L  C0000061
 L  C0000062
 L  C0000063
 L  C0000064
 L  C0000065
 L  C0000066
 L  C0000067
 L  C0000068
 L  C0000069
 L  C0000070
 L  C0000071
 L  C0000072
 L  C0000073
 L  C0000074
 L  C0000075
 L  C0000076
 L  C0000077
 L  C0000078
 L  C0000079
 L  C0000080
 L  C0000081
 L  C0000082
 L  C0000083
 L  C0000084
 L  C0000085
 L  C0000086
 L  C0000087
 L  C0000088
 L  C0000089
 L  C0000090
 L  C0000091
 L  C0000092
 L  C0000093
 L  C0000094
 L  C0000095
 L  C0000096
 L  C0000097
 L  C0000098
 L  C0000099
 L  C0000100
 L  C0000101
 L  C0000102
 L  C0000103
 L  C0000104
 L  C0000105
 L  C0000106
 L  C0000107
 L  C0000108
 L  C0000109
 L  C0000110
 L  C0000111
 L  C0000112
 L  C0000113
 L  C0000114
 L  C0000115
 L  C0000116
 L  C0000117
 L  C0000118
 L  C0000119
 L  C0000120
 L  C0000121
 L  C0000122
 L  C0000123
 L  C0000124
 L  C0000125
 L  C0000126
 L  C0000127
 L  C0000128
 L  C0000129
 L  C0000130
 L  C0000131
 L  C0000132
 L  C0000133
 L  C0000134
 L  C0000135
 L  C0000136
 L  C0000137
 L  C0000138
 L  C0000139
 L  C0000140
 L  C0000141
 L  C0000142
 L  C0000143
 L  C0000144
 L  C0000145
 L  C0000146
 L  C0000147
 L  C0000148
 L  C0000149
 L  C0000150
 L  C0000151
 L  C0000152
 L  C0000153
 L  C0000154
 L  C0000155
 L  C0000156
 L  C0000157
 L  C0000158
 L  C0000159
 L  C0000160
 L  C0000161
 L  C0000162
 L  C0000163
 L  C0000164
 L  C0000165
 L  C0000166
 L  C0000167
 L  C0000168
 L  C0000169
 L  C0000170
 L  C0000171
 L  C0000172
 L  C0000173
 L  C0000174
 L  C0000175
 L  C0000176
 L  C0000177
 L  C0000178
 L  C0000179
 L  C0000180
 L  C0000181
 L  C0000182
 L  C0000183
 L  C0000184
 L  C0000185
 L  C0000186
 L  C0000187
 L  C0000188
 L  C0000189
 L  C0000190
 L  C0000191
 L  C0000192
 L  C0000193
 L  C0000194
 L  C0000195
 L  C0000196
 L  C0000197
 L  C0000198
 L  C0000199
 L  C0000200
 L  C0000201
 L  C0000202
 L  C0000203
 L  C0000204
 L  C0000205
 L  C0000206
 L  C0000207
 L  C0000208
 L  C0000209
 L  C0000210
 L  C0000211
 L  C0000212
 L  C0000213
 L  C0000214
 L  C0000215
 L  C0000216
 L  C0000217
 L  C0000218
 L  C0000219
 L  C0000220
 L  C0000221
 L  C0000222
 L  C0000223
 L  C0000224
 L  C0000225
 L  C0000226
 L  C0000227
 L  C0000228
 L  C0000229
 L  C0000230
 L  C0000231
 L  C0000232
 L  C0000233
 L  C0000234
 L  C0000235
 L  C0000236
 L  C0000237
 L  C0000238
 L  C0000239
 L  C0000240
 L  C0000241
 L  C0000242
 L  C0000243
 L  C0000244
 L  C0000245
 L  C0000246
 L  C0000247
 L  C0000248
 L  C0000249
 L  C0000250
 L  C0000251
 L  C0000252
 L  C0000253
 L  C0000254
 L  C0000255
 L  C0000256
 L  C0000257
 L  C0000258
 L  C0000259
 L  C0000260
 L  C0000261
 L  C0000262
 L  C0000263
 L  C0000264
 L  C0000265
 L  C0000266
 L  C0000267
 L  C0000268
 L  C0000269
 L  C0000270
 L  C0000271
 L  C0000272
 L  C0000273
 L  C0000274
 L  C0000275
 L  C0000276
 L  C0000277
 L  C0000278
 L  C0000279
 L  C0000280
 L  C0000281
 L  C0000282
 L  C0000283
 L  C0000284
 L  C0000285
 L  C0000286
 L  C0000287
 L  C0000288
 L  C0000289
 L  C0000290
 L  C0000291
 L  C0000292
 L  C0000293
 L  C0000294
 L  C0000295
 L  C0000296
 L  C0000297
 L  C0000298
 L  C0000299
 L  C0000300
 L  C0000301
 L  C0000302
 L  C0000303
 L  C0000304
 L  C0000305
 L  C0000306
COLUMNS
    X0000000  C0000084   1.000000000000e+00
    X0000000  C0000271   1.000000000000e+00
    X0000000  OBJ        1.000000000000e+00
    X0000001  C0000084   1.000000000000e+00
    X0000001  C0000275   1.000000000000e+00
    X0000001  OBJ        1.000000000000e+00
    X0000002  C0000084   1.000000000000e+00
    X0000002  C0000279   1.000000000000e+00
    X0000002  OBJ        1.000000000000e+00
    X0000003  C0000084   1.000000000000e+00
    X0000003  C0000281   1.000000000000e+00
    X0000003  OBJ        1.000000000000e+00
    X0000004  C0000076   1.000000000000e+00
    X0000004  C0000085   1.000000000000e+00
    X0000004  OBJ        1.000000000000e+00
    X0000005  C0000066   1.000000000000e+00
    X0000005  C0000076   1.000000000000e+00
    X0000005  OBJ        1.000000000000e+00
    X0000006  C0000064   1.000000000000e+00
    X0000006  C0000076   1.000000000000e+00
    X0000006  OBJ        1.000000000000e+00
    X0000007  C0000076   1.000000000000e+00
    X0000007  C0000107   1.000000000000e+00
    X0000007  OBJ        1.000000000000e+00
    X0000008  C0000076   1.000000000000e+00
    X0000008  C0000096   1.000000000000e+00
    X0000008  OBJ        1.000000000000e+00
    X0000009  C0000076   1.000000000000e+00
    X0000009  C0000093   1.000000000000e+00
    X0000009  OBJ        1.000000000000e+00
    X0000010  C0000076   1.000000000000e+00
    X0000010  C0000091   1.000000000000e+00
    X0000010  OBJ        1.000000000000e+00
    X0000011  C0000076   1.000000000000e+00
    X0000011  C0000079   1.000000000000e+00
    X0000011  OBJ        1.000000000000e+00
    X0000012  C0000076   1.000000000000e+00
    X0000012  C0000083   1.000000000000e+00
    X0000012  OBJ        1.000000000000e+00
    X0000013  C0000290   1.000000000000e+00
    X0000013  C0000294   1.000000000000e+00
    X0000013  OBJ        1.000000000000e+00
    X0000014  C0000019   1.000000000000e+00
    X0000014  C0000045   1.000000000000e+00
    X0000014  OBJ        1.000000000000e+00
    X0000015  C0000047   1.000000000000e+00
    X0000015  C0000054   1.000000000000e+00
    X0000015  OBJ        1.000000000000e+00
    X0000016  C0000047   1.000000000000e+00
    X0000016  C0000053   1.000000000000e+00
    X0000016  OBJ        1.000000000000e+00
    X0000017  C0000047   1.000000000000e+00
    X0000017  C0000188   1.000000000000e+00
    X0000017  OBJ        1.000000000000e+00
    X0000018  C0000047   1.000000000000e+00
    X0000018  C0000192   1.000000000000e+00
    X0000018  OBJ        1.000000000000e+00
    X0000019  C0000047   1.000000000000e+00
    X0000019  C0000286   1.000000000000e+00
    X0000019  OBJ        1.000000000000e+00
    X0000020  C0000047   1.000000000000e+00
    X0000020  C0000195   1.000000000000e+00
    X0000020  OBJ        1.000000000000e+00
    X0000021  C0000047   1.000000000000e+00
    X0000021  C0000137   1.000000000000e+00
    X0000021  OBJ        1.000000000000e+00
    X0000022  C0000047   1.000000000000e+00
    X0000022  C0000094   1.000000000000e+00
    X0000022  OBJ        1.000000000000e+00
    X0000023  C0000019   1.000000000000e+00
    X0000023  C0000025   1.000000000000e+00
    X0000023  OBJ        1.000000000000e+00
    X0000024  C0000025   1.000000000000e+00
    X0000024  C0000052   1.000000000000e+00
    X0000024  OBJ        1.000000000000e+00
    X0000025  C0000025   1.000000000000e+00
    X0000025  C0000038   1.000000000000e+00
    X0000025  OBJ        1.000000000000e+00
    X0000026  C0000025   1.000000000000e+00
    X0000026  C0000044   1.000000000000e+00
    X0000026  OBJ        1.000000000000e+00
    X0000027  C0000025   1.000000000000e+00
    X0000027  C0000056   1.000000000000e+00
    X0000027  OBJ        1.000000000000e+00
    X0000028  C0000139   1.000000000000e+00
    X0000028  C0000165   1.000000000000e+00
    X0000028  OBJ        1.000000000000e+00
    X0000029  C0000139   1.000000000000e+00
    X0000029  C0000169   1.000000000000e+00
    X0000029  OBJ        1.000000000000e+00
    X0000030  C0000139   1.000000000000e+00
    X0000030  C0000177   1.000000000000e+00
    X0000030  OBJ        1.000000000000e+00
    X0000031  C0000139   1.000000000000e+00
    X0000031  C0000231   1.000000000000e+00
    X0000031  OBJ        1.000000000000e+00
    X0000032  C0000139   1.000000000000e+00
    X0000032  C0000235   1.000000000000e+00
    X0000032  OBJ        1.000000000000e+00
    X0000033  C0000139   1.000000000000e+00
    X0000033  C0000239   1.000000000000e+00
    X0000033  OBJ        1.000000000000e+00
    X0000034  C0000139   1.000000000000e+00
    X0000034  C0000243   1.000000000000e+00
    X0000034  OBJ        1.000000000000e+00
    X0000035  C0000139   1.000000000000e+00
    X0000035  C0000247   1.000000000000e+00
    X0000035  OBJ        1.000000000000e+00
    X0000036  C0000139   1.000000000000e+00
    X0000036  C0000251   1.000000000000e+00
    X0000036  OBJ        1.000000000000e+00
    X0000037  C0000139   1.000000000000e+00
    X0000037  C0000255   1.000000000000e+00
    X0000037  OBJ        1.000000000000e+00
    X0000038  C0000139   1.000000000000e+00
    X0000038  C0000259   1.000000000000e+00
    X0000038  OBJ        1.000000000000e+00
    X0000039  C0000139   1.000000000000e+00
    X0000039  C0000263   1.000000000000e+00
    X0000039  OBJ        1.000000000000e+00
    X0000040  C0000139   1.000000000000e+00
    X0000040  C0000267   1.000000000000e+00
    X0000040  OBJ        1.000000000000e+00
    X0000041  C0000139   1.000000000000e+00
    X0000041  C0000271   1.000000000000e+00
    X0000041  OBJ        1.000000000000e+00
    X0000042  C0000139   1.000000000000e+00
    X0000042  C0000275   1.000000000000e+00
    X0000042  OBJ        1.000000000000e+00
    X0000043  C0000139   1.000000000000e+00
    X0000043  C0000279   1.000000000000e+00
    X0000043  OBJ        1.000000000000e+00
    X0000044  C0000139   1.000000000000e+00
    X0000044  C0000281   1.000000000000e+00
    X0000044  OBJ        1.000000000000e+00
    X0000045  C0000139   1.000000000000e+00
    X0000045  C0000181   1.000000000000e+00
    X0000045  OBJ        1.000000000000e+00
    X0000046  C0000139   1.000000000000e+00
    X0000046  C0000186   1.000000000000e+00
    X0000046  OBJ        1.000000000000e+00
    X0000047  C0000139   1.000000000000e+00
    X0000047  C0000190   1.000000000000e+00
    X0000047  OBJ        1.000000000000e+00
    X0000048  C0000139   1.000000000000e+00
    X0000048  C0000194   1.000000000000e+00
    X0000048  OBJ        1.000000000000e+00
    X0000049  C0000139   1.000000000000e+00
    X0000049  C0000197   1.000000000000e+00
    X0000049  OBJ        1.000000000000e+00
    X0000050  C0000139   1.000000000000e+00
    X0000050  C0000173   1.000000000000e+00
    X0000050  OBJ        1.000000000000e+00
    X0000051  C0000054   1.000000000000e+00
    X0000051  C0000141   1.000000000000e+00
    X0000051  OBJ        1.000000000000e+00
    X0000052  C0000141   1.000000000000e+00
    X0000052  C0000295   1.000000000000e+00
    X0000052  OBJ        1.000000000000e+00
    X0000053  C0000046   1.000000000000e+00
    X0000053  C0000141   1.000000000000e+00
    X0000053  OBJ        1.000000000000e+00
    X0000054  C0000026   1.000000000000e+00
    X0000054  C0000141   1.000000000000e+00
    X0000054  OBJ        1.000000000000e+00
    X0000055  C0000140   1.000000000000e+00
    X0000055  C0000141   1.000000000000e+00
    X0000055  OBJ        1.000000000000e+00
    X0000056  C0000141   1.000000000000e+00
    X0000056  C0000175   1.000000000000e+00
    X0000056  OBJ        1.000000000000e+00
    X0000057  C0000141   1.000000000000e+00
    X0000057  C0000182   1.000000000000e+00
    X0000057  OBJ        1.000000000000e+00
    X0000058  C0000141   1.000000000000e+00
    X0000058  C0000291   1.000000000000e+00
    X0000058  OBJ        1.000000000000e+00
    X0000059  C0000018   1.000000000000e+00
    X0000059  C0000141   1.000000000000e+00
    X0000059  OBJ        1.000000000000e+00
    X0000060  C0000042   1.000000000000e+00
    X0000060  C0000141   1.000000000000e+00
    X0000060  OBJ        1.000000000000e+00
    X0000061  C0000053   1.000000000000e+00
    X0000061  C0000141   1.000000000000e+00
    X0000061  OBJ        1.000000000000e+00
    X0000062  C0000141   1.000000000000e+00
    X0000062  C0000146   1.000000000000e+00
    X0000062  OBJ        1.000000000000e+00
    X0000063  C0000141   1.000000000000e+00
    X0000063  C0000179   1.000000000000e+00
    X0000063  OBJ        1.000000000000e+00
    X0000064  C0000128   1.000000000000e+00
    X0000064  C0000141   1.000000000000e+00
    X0000064  OBJ        1.000000000000e+00
    X0000065  C0000135   1.000000000000e+00
    X0000065  C0000141   1.000000000000e+00
    X0000065  OBJ        1.000000000000e+00
    X0000066  C0000111   1.000000000000e+00
    X0000066  C0000141   1.000000000000e+00
    X0000066  OBJ        1.000000000000e+00
    X0000067  C0000012   1.000000000000e+00
    X0000067  C0000141   1.000000000000e+00
    X0000067  OBJ        1.000000000000e+00
    X0000068  C0000141   1.000000000000e+00
    X0000068  C0000155   1.000000000000e+00
    X0000068  OBJ        1.000000000000e+00
    X0000069  C0000141   1.000000000000e+00
    X0000069  C0000167   1.000000000000e+00
    X0000069  OBJ        1.000000000000e+00
    X0000070  C0000141   1.000000000000e+00
    X0000070  C0000184   1.000000000000e+00
    X0000070  OBJ        1.000000000000e+00
    X0000071  C0000141   1.000000000000e+00
    X0000071  C0000188   1.000000000000e+00
    X0000071  OBJ        1.000000000000e+00
    X0000072  C0000141   1.000000000000e+00
    X0000072  C0000192   1.000000000000e+00
    X0000072  OBJ        1.000000000000e+00
    X0000073  C0000141   1.000000000000e+00
    X0000073  C0000304   1.000000000000e+00
    X0000073  OBJ        1.000000000000e+00
    X0000074  C0000141   1.000000000000e+00
    X0000074  C0000285   1.000000000000e+00
    X0000074  OBJ        1.000000000000e+00
    X0000075  C0000141   1.000000000000e+00
    X0000075  C0000287   1.000000000000e+00
    X0000075  OBJ        1.000000000000e+00
    X0000076  C0000141   1.000000000000e+00
    X0000076  C0000286   1.000000000000e+00
    X0000076  OBJ        1.000000000000e+00
    X0000077  C0000141   1.000000000000e+00
    X0000077  C0000298   1.000000000000e+00
    X0000077  OBJ        1.000000000000e+00
    X0000078  C0000141   1.000000000000e+00
    X0000078  C0000288   1.000000000000e+00
    X0000078  OBJ        1.000000000000e+00
    X0000079  C0000032   1.000000000000e+00
    X0000079  C0000141   1.000000000000e+00
    X0000079  OBJ        1.000000000000e+00
    X0000080  C0000036   1.000000000000e+00
    X0000080  C0000141   1.000000000000e+00
    X0000080  OBJ        1.000000000000e+00
    X0000081  C0000040   1.000000000000e+00
    X0000081  C0000141   1.000000000000e+00
    X0000081  OBJ        1.000000000000e+00
    X0000082  C0000022   1.000000000000e+00
    X0000082  C0000141   1.000000000000e+00
    X0000082  OBJ        1.000000000000e+00
    X0000083  C0000030   1.000000000000e+00
    X0000083  C0000141   1.000000000000e+00
    X0000083  OBJ        1.000000000000e+00
    X0000084  C0000050   1.000000000000e+00
    X0000084  C0000141   1.000000000000e+00
    X0000084  OBJ        1.000000000000e+00
    X0000085  C0000141   1.000000000000e+00
    X0000085  C0000143   1.000000000000e+00
    X0000085  OBJ        1.000000000000e+00
    X0000086  C0000141   1.000000000000e+00
    X0000086  C0000151   1.000000000000e+00
    X0000086  OBJ        1.000000000000e+00
    X0000087  C0000141   1.000000000000e+00
    X0000087  C0000195   1.000000000000e+00
    X0000087  OBJ        1.000000000000e+00
    X0000088  C0000141   1.000000000000e+00
    X0000088  C0000159   1.000000000000e+00
    X0000088  OBJ        1.000000000000e+00
    X0000089  C0000141   1.000000000000e+00
    X0000089  C0000171   1.000000000000e+00
    X0000089  OBJ        1.000000000000e+00
    X0000090  C0000141   1.000000000000e+00
    X0000090  C0000163   1.000000000000e+00
    X0000090  OBJ        1.000000000000e+00
    X0000091  C0000136   1.000000000000e+00
    X0000091  C0000141   1.000000000000e+00
    X0000091  OBJ        1.000000000000e+00
    X0000092  C0000137   1.000000000000e+00
    X0000092  C0000141   1.000000000000e+00
    X0000092  OBJ        1.000000000000e+00
    X0000093  C0000134   1.000000000000e+00
    X0000093  C0000141   1.000000000000e+00
    X0000093  OBJ        1.000000000000e+00
    X0000094  C0000001   1.000000000000e+00
    X0000094  C0000141   1.000000000000e+00
    X0000094  OBJ        1.000000000000e+00
    X0000095  C0000013   1.000000000000e+00
    X0000095  C0000141   1.000000000000e+00
    X0000095  OBJ        1.000000000000e+00
    X0000096  C0000014   1.000000000000e+00
    X0000096  C0000141   1.000000000000e+00
    X0000096  OBJ        1.000000000000e+00
    X0000097  C0000016   1.000000000000e+00
    X0000097  C0000141   1.000000000000e+00
    X0000097  OBJ        1.000000000000e+00
    X0000098  C0000006   1.000000000000e+00
    X0000098  C0000141   1.000000000000e+00
    X0000098  OBJ        1.000000000000e+00
    X0000099  C0000109   1.000000000000e+00
    X0000099  C0000141   1.000000000000e+00
    X0000099  OBJ        1.000000000000e+00
    X0000100  C0000105   1.000000000000e+00
    X0000100  C0000141   1.000000000000e+00
    X0000100  OBJ        1.000000000000e+00
    X0000101  C0000103   1.000000000000e+00
    X0000101  C0000141   1.000000000000e+00
    X0000101  OBJ        1.000000000000e+00
    X0000102  C0000125   1.000000000000e+00
    X0000102  C0000141   1.000000000000e+00
    X0000102  OBJ        1.000000000000e+00
    X0000103  C0000099   1.000000000000e+00
    X0000103  C0000141   1.000000000000e+00
    X0000103  OBJ        1.000000000000e+00
    X0000104  C0000121   1.000000000000e+00
    X0000104  C0000141   1.000000000000e+00
    X0000104  OBJ        1.000000000000e+00
    X0000105  C0000117   1.000000000000e+00
    X0000105  C0000141   1.000000000000e+00
    X0000105  OBJ        1.000000000000e+00
    X0000106  C0000097   1.000000000000e+00
    X0000106  C0000141   1.000000000000e+00
    X0000106  OBJ        1.000000000000e+00
    X0000107  C0000094   1.000000000000e+00
    X0000107  C0000141   1.000000000000e+00
    X0000107  OBJ        1.000000000000e+00
    X0000108  C0000054   1.000000000000e+00
    X0000108  C0000164   1.000000000000e+00
    X0000108  OBJ        1.000000000000e+00
    X0000109  C0000164   1.000000000000e+00
    X0000109  C0000295   1.000000000000e+00
    X0000109  OBJ        1.000000000000e+00
    X0000110  C0000046   1.000000000000e+00
    X0000110  C0000164   1.000000000000e+00
    X0000110  OBJ        1.000000000000e+00
    X0000111  C0000164   1.000000000000e+00
    X0000111  C0000175   1.000000000000e+00
    X0000111  OBJ        1.000000000000e+00
    X0000112  C0000164   1.000000000000e+00
    X0000112  C0000182   1.000000000000e+00
    X0000112  OBJ        1.000000000000e+00
    X0000113  C0000164   1.000000000000e+00
    X0000113  C0000291   1.000000000000e+00
    X0000113  OBJ        1.000000000000e+00
    X0000114  C0000042   1.000000000000e+00
    X0000114  C0000164   1.000000000000e+00
    X0000114  OBJ        1.000000000000e+00
    X0000115  C0000053   1.000000000000e+00
    X0000115  C0000164   1.000000000000e+00
    X0000115  OBJ        1.000000000000e+00
    X0000116  C0000164   1.000000000000e+00
    X0000116  C0000179   1.000000000000e+00
    X0000116  OBJ        1.000000000000e+00
    X0000117  C0000135   1.000000000000e+00
    X0000117  C0000164   1.000000000000e+00
    X0000117  OBJ        1.000000000000e+00
    X0000118  C0000012   1.000000000000e+00
    X0000118  C0000164   1.000000000000e+00
    X0000118  OBJ        1.000000000000e+00
    X0000119  C0000164   1.000000000000e+00
    X0000119  C0000167   1.000000000000e+00
    X0000119  OBJ        1.000000000000e+00
    X0000120  C0000164   1.000000000000e+00
    X0000120  C0000184   1.000000000000e+00
    X0000120  OBJ        1.000000000000e+00
    X0000121  C0000164   1.000000000000e+00
    X0000121  C0000188   1.000000000000e+00
    X0000121  OBJ        1.000000000000e+00
    X0000122  C0000164   1.000000000000e+00
    X0000122  C0000192   1.000000000000e+00
    X0000122  OBJ        1.000000000000e+00
    X0000123  C0000164   1.000000000000e+00
    X0000123  C0000287   1.000000000000e+00
    X0000123  OBJ        1.000000000000e+00
    X0000124  C0000164   1.000000000000e+00
    X0000124  C0000286   1.000000000000e+00
    X0000124  OBJ        1.000000000000e+00
    X0000125  C0000164   1.000000000000e+00
    X0000125  C0000288   1.000000000000e+00
    X0000125  OBJ        1.000000000000e+00
    X0000126  C0000036   1.000000000000e+00
    X0000126  C0000164   1.000000000000e+00
    X0000126  OBJ        1.000000000000e+00
    X0000127  C0000040   1.000000000000e+00
    X0000127  C0000164   1.000000000000e+00
    X0000127  OBJ        1.000000000000e+00
    X0000128  C0000050   1.000000000000e+00
    X0000128  C0000164   1.000000000000e+00
    X0000128  OBJ        1.000000000000e+00
    X0000129  C0000164   1.000000000000e+00
    X0000129  C0000195   1.000000000000e+00
    X0000129  OBJ        1.000000000000e+00
    X0000130  C0000164   1.000000000000e+00
    X0000130  C0000171   1.000000000000e+00
    X0000130  OBJ        1.000000000000e+00
    X0000131  C0000163   1.000000000000e+00
    X0000131  C0000164   1.000000000000e+00
    X0000131  OBJ        1.000000000000e+00
    X0000132  C0000136   1.000000000000e+00
    X0000132  C0000164   1.000000000000e+00
    X0000132  OBJ        1.000000000000e+00
    X0000133  C0000137   1.000000000000e+00
    X0000133  C0000164   1.000000000000e+00
    X0000133  OBJ        1.000000000000e+00
    X0000134  C0000134   1.000000000000e+00
    X0000134  C0000164   1.000000000000e+00
    X0000134  OBJ        1.000000000000e+00
    X0000135  C0000013   1.000000000000e+00
    X0000135  C0000164   1.000000000000e+00
    X0000135  OBJ        1.000000000000e+00
    X0000136  C0000014   1.000000000000e+00
    X0000136  C0000164   1.000000000000e+00
    X0000136  OBJ        1.000000000000e+00
    X0000137  C0000006   1.000000000000e+00
    X0000137  C0000164   1.000000000000e+00
    X0000137  OBJ        1.000000000000e+00
    X0000138  C0000109   1.000000000000e+00
    X0000138  C0000164   1.000000000000e+00
    X0000138  OBJ        1.000000000000e+00
    X0000139  C0000105   1.000000000000e+00
    X0000139  C0000164   1.000000000000e+00
    X0000139  OBJ        1.000000000000e+00
    X0000140  C0000103   1.000000000000e+00
    X0000140  C0000164   1.000000000000e+00
    X0000140  OBJ        1.000000000000e+00
    X0000141  C0000099   1.000000000000e+00
    X0000141  C0000164   1.000000000000e+00
    X0000141  OBJ        1.000000000000e+00
    X0000142  C0000097   1.000000000000e+00
    X0000142  C0000164   1.000000000000e+00
    X0000142  OBJ        1.000000000000e+00
    X0000143  C0000094   1.000000000000e+00
    X0000143  C0000164   1.000000000000e+00
    X0000143  OBJ        1.000000000000e+00
    X0000144  C0000174   1.000000000000e+00
    X0000144  C0000267   1.000000000000e+00
    X0000144  OBJ        1.000000000000e+00
    X0000145  C0000174   1.000000000000e+00
    X0000145  C0000271   1.000000000000e+00
    X0000145  OBJ        1.000000000000e+00
    X0000146  C0000174   1.000000000000e+00
    X0000146  C0000275   1.000000000000e+00
    X0000146  OBJ        1.000000000000e+00
    X0000147  C0000174   1.000000000000e+00
    X0000147  C0000279   1.000000000000e+00
    X0000147  OBJ        1.000000000000e+00
    X0000148  C0000174   1.000000000000e+00
    X0000148  C0000281   1.000000000000e+00
    X0000148  OBJ        1.000000000000e+00
    X0000149  C0000174   1.000000000000e+00
    X0000149  C0000197   1.000000000000e+00
    X0000149  OBJ        1.000000000000e+00
    X0000150  C0000054   1.000000000000e+00
    X0000150  C0000147   1.000000000000e+00
    X0000150  OBJ        1.000000000000e+00
    X0000151  C0000147   1.000000000000e+00
    X0000151  C0000295   1.000000000000e+00
    X0000151  OBJ        1.000000000000e+00
    X0000152  C0000046   1.000000000000e+00
    X0000152  C0000147   1.000000000000e+00
    X0000152  OBJ        1.000000000000e+00
    X0000153  C0000026   1.000000000000e+00
    X0000153  C0000147   1.000000000000e+00
    X0000153  OBJ        1.000000000000e+00
    X0000154  C0000147   1.000000000000e+00
    X0000154  C0000175   1.000000000000e+00
    X0000154  OBJ        1.000000000000e+00
    X0000155  C0000147   1.000000000000e+00
    X0000155  C0000182   1.000000000000e+00
    X0000155  OBJ        1.000000000000e+00
    X0000156  C0000147   1.000000000000e+00
    X0000156  C0000291   1.000000000000e+00
    X0000156  OBJ        1.000000000000e+00
    X0000157  C0000042   1.000000000000e+00
    X0000157  C0000147   1.000000000000e+00
    X0000157  OBJ        1.000000000000e+00
    X0000158  C0000053   1.000000000000e+00
    X0000158  C0000147   1.000000000000e+00
    X0000158  OBJ        1.000000000000e+00
    X0000159  C0000146   1.000000000000e+00
    X0000159  C0000147   1.000000000000e+00
    X0000159  OBJ        1.000000000000e+00
    X0000160  C0000147   1.000000000000e+00
    X0000160  C0000179   1.000000000000e+00
    X0000160  OBJ        1.000000000000e+00
    X0000161  C0000128   1.000000000000e+00
    X0000161  C0000147   1.000000000000e+00
    X0000161  OBJ        1.000000000000e+00
    X0000162  C0000135   1.000000000000e+00
    X0000162  C0000147   1.000000000000e+00
    X0000162  OBJ        1.000000000000e+00
    X0000163  C0000111   1.000000000000e+00
    X0000163  C0000147   1.000000000000e+00
    X0000163  OBJ        1.000000000000e+00
    X0000164  C0000012   1.000000000000e+00
    X0000164  C0000147   1.000000000000e+00
    X0000164  OBJ        1.000000000000e+00
    X0000165  C0000147   1.000000000000e+00
    X0000165  C0000155   1.000000000000e+00
    X0000165  OBJ        1.000000000000e+00
    X0000166  C0000147   1.000000000000e+00
    X0000166  C0000167   1.000000000000e+00
    X0000166  OBJ        1.000000000000e+00
    X0000167  C0000147   1.000000000000e+00
    X0000167  C0000184   1.000000000000e+00
    X0000167  OBJ        1.000000000000e+00
    X0000168  C0000147   1.000000000000e+00
    X0000168  C0000188   1.000000000000e+00
    X0000168  OBJ        1.000000000000e+00
    X0000169  C0000147   1.000000000000e+00
    X0000169  C0000192   1.000000000000e+00
    X0000169  OBJ        1.000000000000e+00
    X0000170  C0000147   1.000000000000e+00
    X0000170  C0000304   1.000000000000e+00
    X0000170  OBJ        1.000000000000e+00
    X0000171  C0000147   1.000000000000e+00
    X0000171  C0000287   1.000000000000e+00
    X0000171  OBJ        1.000000000000e+00
    X0000172  C0000147   1.000000000000e+00
    X0000172  C0000286   1.000000000000e+00
    X0000172  OBJ        1.000000000000e+00
    X0000173  C0000147   1.000000000000e+00
    X0000173  C0000298   1.000000000000e+00
    X0000173  OBJ        1.000000000000e+00
    X0000174  C0000147   1.000000000000e+00
    X0000174  C0000288   1.000000000000e+00
    X0000174  OBJ        1.000000000000e+00
    X0000175  C0000032   1.000000000000e+00
    X0000175  C0000147   1.000000000000e+00
    X0000175  OBJ        1.000000000000e+00
    X0000176  C0000036   1.000000000000e+00
    X0000176  C0000147   1.000000000000e+00
    X0000176  OBJ        1.000000000000e+00
    X0000177  C0000040   1.000000000000e+00
    X0000177  C0000147   1.000000000000e+00
    X0000177  OBJ        1.000000000000e+00
    X0000178  C0000030   1.000000000000e+00
    X0000178  C0000147   1.000000000000e+00
    X0000178  OBJ        1.000000000000e+00
    X0000179  C0000050   1.000000000000e+00
    X0000179  C0000147   1.000000000000e+00
    X0000179  OBJ        1.000000000000e+00
    X0000180  C0000147   1.000000000000e+00
    X0000180  C0000151   1.000000000000e+00
    X0000180  OBJ        1.000000000000e+00
    X0000181  C0000147   1.000000000000e+00
    X0000181  C0000195   1.000000000000e+00
    X0000181  OBJ        1.000000000000e+00
    X0000182  C0000147   1.000000000000e+00
    X0000182  C0000159   1.000000000000e+00
    X0000182  OBJ        1.000000000000e+00
    X0000183  C0000147   1.000000000000e+00
    X0000183  C0000171   1.000000000000e+00
    X0000183  OBJ        1.000000000000e+00
    X0000184  C0000147   1.000000000000e+00
    X0000184  C0000163   1.000000000000e+00
    X0000184  OBJ        1.000000000000e+00
    X0000185  C0000136   1.000000000000e+00
    X0000185  C0000147   1.000000000000e+00
    X0000185  OBJ        1.000000000000e+00
    X0000186  C0000137   1.000000000000e+00
    X0000186  C0000147   1.000000000000e+00
    X0000186  OBJ        1.000000000000e+00
    X0000187  C0000134   1.000000000000e+00
    X0000187  C0000147   1.000000000000e+00
    X0000187  OBJ        1.000000000000e+00
    X0000188  C0000013   1.000000000000e+00
    X0000188  C0000147   1.000000000000e+00
    X0000188  OBJ        1.000000000000e+00
    X0000189  C0000014   1.000000000000e+00
    X0000189  C0000147   1.000000000000e+00
    X0000189  OBJ        1.000000000000e+00
    X0000190  C0000016   1.000000000000e+00
    X0000190  C0000147   1.000000000000e+00
    X0000190  OBJ        1.000000000000e+00
    X0000191  C0000006   1.000000000000e+00
    X0000191  C0000147   1.000000000000e+00
    X0000191  OBJ        1.000000000000e+00
    X0000192  C0000109   1.000000000000e+00
    X0000192  C0000147   1.000000000000e+00
    X0000192  OBJ        1.000000000000e+00
    X0000193  C0000105   1.000000000000e+00
    X0000193  C0000147   1.000000000000e+00
    X0000193  OBJ        1.000000000000e+00
    X0000194  C0000103   1.000000000000e+00
    X0000194  C0000147   1.000000000000e+00
    X0000194  OBJ        1.000000000000e+00
    X0000195  C0000099   1.000000000000e+00
    X0000195  C0000147   1.000000000000e+00
    X0000195  OBJ        1.000000000000e+00
    X0000196  C0000117   1.000000000000e+00
    X0000196  C0000147   1.000000000000e+00
    X0000196  OBJ        1.000000000000e+00
    X0000197  C0000097   1.000000000000e+00
    X0000197  C0000147   1.000000000000e+00
    X0000197  OBJ        1.000000000000e+00
    X0000198  C0000094   1.000000000000e+00
    X0000198  C0000147   1.000000000000e+00
    X0000198  OBJ        1.000000000000e+00
    X0000199  C0000080   1.000000000000e+00
    X0000199  C0000085   1.000000000000e+00
    X0000199  OBJ        1.000000000000e+00
    X0000200  C0000066   1.000000000000e+00
    X0000200  C0000080   1.000000000000e+00
    X0000200  OBJ        1.000000000000e+00
    X0000201  C0000064   1.000000000000e+00
    X0000201  C0000080   1.000000000000e+00
    X0000201  OBJ        1.000000000000e+00
    X0000202  C0000080   1.000000000000e+00
    X0000202  C0000096   1.000000000000e+00
    X0000202  OBJ        1.000000000000e+00
    X0000203  C0000080   1.000000000000e+00
    X0000203  C0000093   1.000000000000e+00
    X0000203  OBJ        1.000000000000e+00
    X0000204  C0000080   1.000000000000e+00
    X0000204  C0000091   1.000000000000e+00
    X0000204  OBJ        1.000000000000e+00
    X0000205  C0000080   1.000000000000e+00
    X0000205  C0000083   1.000000000000e+00
    X0000205  OBJ        1.000000000000e+00
    X0000206  C0000054   1.000000000000e+00
    X0000206  C0000306   1.000000000000e+00
    X0000206  OBJ        1.000000000000e+00
    X0000207  C0000295   1.000000000000e+00
    X0000207  C0000306   1.000000000000e+00
    X0000207  OBJ        1.000000000000e+00
    X0000208  C0000046   1.000000000000e+00
    X0000208  C0000306   1.000000000000e+00
    X0000208  OBJ        1.000000000000e+00
    X0000209  C0000026   1.000000000000e+00
    X0000209  C0000306   1.000000000000e+00
    X0000209  OBJ        1.000000000000e+00
    X0000210  C0000175   1.000000000000e+00
    X0000210  C0000306   1.000000000000e+00
    X0000210  OBJ        1.000000000000e+00
    X0000211  C0000182   1.000000000000e+00
    X0000211  C0000306   1.000000000000e+00
    X0000211  OBJ        1.000000000000e+00
    X0000212  C0000291   1.000000000000e+00
    X0000212  C0000306   1.000000000000e+00
    X0000212  OBJ        1.000000000000e+00
    X0000213  C0000042   1.000000000000e+00
    X0000213  C0000306   1.000000000000e+00
    X0000213  OBJ        1.000000000000e+00
    X0000214  C0000053   1.000000000000e+00
    X0000214  C0000306   1.000000000000e+00
    X0000214  OBJ        1.000000000000e+00
    X0000215  C0000179   1.000000000000e+00
    X0000215  C0000306   1.000000000000e+00
    X0000215  OBJ        1.000000000000e+00
    X0000216  C0000128   1.000000000000e+00
    X0000216  C0000306   1.000000000000e+00
    X0000216  OBJ        1.000000000000e+00
    X0000217  C0000135   1.000000000000e+00
    X0000217  C0000306   1.000000000000e+00
    X0000217  OBJ        1.000000000000e+00
    X0000218  C0000111   1.000000000000e+00
    X0000218  C0000306   1.000000000000e+00
    X0000218  OBJ        1.000000000000e+00
    X0000219  C0000012   1.000000000000e+00
    X0000219  C0000306   1.000000000000e+00
    X0000219  OBJ        1.000000000000e+00
    X0000220  C0000155   1.000000000000e+00
    X0000220  C0000306   1.000000000000e+00
    X0000220  OBJ        1.000000000000e+00
    X0000221  C0000167   1.000000000000e+00
    X0000221  C0000306   1.000000000000e+00
    X0000221  OBJ        1.000000000000e+00
    X0000222  C0000184   1.000000000000e+00
    X0000222  C0000306   1.000000000000e+00
    X0000222  OBJ        1.000000000000e+00
    X0000223  C0000188   1.000000000000e+00
    X0000223  C0000306   1.000000000000e+00
    X0000223  OBJ        1.000000000000e+00
    X0000224  C0000192   1.000000000000e+00
    X0000224  C0000306   1.000000000000e+00
    X0000224  OBJ        1.000000000000e+00
    X0000225  C0000287   1.000000000000e+00
    X0000225  C0000306   1.000000000000e+00
    X0000225  OBJ        1.000000000000e+00
    X0000226  C0000286   1.000000000000e+00
    X0000226  C0000306   1.000000000000e+00
    X0000226  OBJ        1.000000000000e+00
    X0000227  C0000298   1.000000000000e+00
    X0000227  C0000306   1.000000000000e+00
    X0000227  OBJ        1.000000000000e+00
    X0000228  C0000288   1.000000000000e+00
    X0000228  C0000306   1.000000000000e+00
    X0000228  OBJ        1.000000000000e+00
    X0000229  C0000032   1.000000000000e+00
    X0000229  C0000306   1.000000000000e+00
    X0000229  OBJ        1.000000000000e+00
    X0000230  C0000036   1.000000000000e+00
    X0000230  C0000306   1.000000000000e+00
    X0000230  OBJ        1.000000000000e+00
    X0000231  C0000040   1.000000000000e+00
    X0000231  C0000306   1.000000000000e+00
    X0000231  OBJ        1.000000000000e+00
    X0000232  C0000030   1.000000000000e+00
    X0000232  C0000306   1.000000000000e+00
    X0000232  OBJ        1.000000000000e+00
    X0000233  C0000050   1.000000000000e+00
    X0000233  C0000306   1.000000000000e+00
    X0000233  OBJ        1.000000000000e+00
    X0000234  C0000151   1.000000000000e+00
    X0000234  C0000306   1.000000000000e+00
    X0000234  OBJ        1.000000000000e+00
    X0000235  C0000195   1.000000000000e+00
    X0000235  C0000306   1.000000000000e+00
    X0000235  OBJ        1.000000000000e+00
    X0000236  C0000159   1.000000000000e+00
    X0000236  C0000306   1.000000000000e+00
    X0000236  OBJ        1.000000000000e+00
    X0000237  C0000171   1.000000000000e+00
    X0000237  C0000306   1.000000000000e+00
    X0000237  OBJ        1.000000000000e+00
    X0000238  C0000163   1.000000000000e+00
    X0000238  C0000306   1.000000000000e+00
    X0000238  OBJ        1.000000000000e+00
    X0000239  C0000136   1.000000000000e+00
    X0000239  C0000306   1.000000000000e+00
    X0000239  OBJ        1.000000000000e+00
    X0000240  C0000137   1.000000000000e+00
    X0000240  C0000306   1.000000000000e+00
    X0000240  OBJ        1.000000000000e+00
    X0000241  C0000134   1.000000000000e+00
    X0000241  C0000306   1.000000000000e+00
    X0000241  OBJ        1.000000000000e+00
    X0000242  C0000013   1.000000000000e+00
    X0000242  C0000306   1.000000000000e+00
    X0000242  OBJ        1.000000000000e+00
    X0000243  C0000014   1.000000000000e+00
    X0000243  C0000306   1.000000000000e+00
    X0000243  OBJ        1.000000000000e+00
    X0000244  C0000016   1.000000000000e+00
    X0000244  C0000306   1.000000000000e+00
    X0000244  OBJ        1.000000000000e+00
    X0000245  C0000006   1.000000000000e+00
    X0000245  C0000306   1.000000000000e+00
    X0000245  OBJ        1.000000000000e+00
    X0000246  C0000109   1.000000000000e+00
    X0000246  C0000306   1.000000000000e+00
    X0000246  OBJ        1.000000000000e+00
    X0000247  C0000105   1.000000000000e+00
    X0000247  C0000306   1.000000000000e+00
    X0000247  OBJ        1.000000000000e+00
    X0000248  C0000103   1.000000000000e+00
    X0000248  C0000306   1.000000000000e+00
    X0000248  OBJ        1.000000000000e+00
    X0000249  C0000099   1.000000000000e+00
    X0000249  C0000306   1.000000000000e+00
    X0000249  OBJ        1.000000000000e+00
    X0000250  C0000097   1.000000000000e+00
    X0000250  C0000306   1.000000000000e+00
    X0000250  OBJ        1.000000000000e+00
    X0000251  C0000094   1.000000000000e+00
    X0000251  C0000306   1.000000000000e+00
    X0000251  OBJ        1.000000000000e+00
    X0000252  C0000017   1.000000000000e+00
    X0000252  C0000048   1.000000000000e+00
    X0000252  OBJ        1.000000000000e+00
    X0000253  C0000017   1.000000000000e+00
    X0000253  C0000028   1.000000000000e+00
    X0000253  OBJ        1.000000000000e+00
    X0000254  C0000017   1.000000000000e+00
    X0000254  C0000034   1.000000000000e+00
    X0000254  OBJ        1.000000000000e+00
    X0000255  C0000024   1.000000000000e+00
    X0000255  C0000054   1.000000000000e+00
    X0000255  OBJ        1.000000000000e+00
    X0000256  C0000024   1.000000000000e+00
    X0000256  C0000295   1.000000000000e+00
    X0000256  OBJ        1.000000000000e+00
    X0000257  C0000024   1.000000000000e+00
    X0000257  C0000046   1.000000000000e+00
    X0000257  OBJ        1.000000000000e+00
    X0000258  C0000024   1.000000000000e+00
    X0000258  C0000175   1.000000000000e+00
    X0000258  OBJ        1.000000000000e+00
    X0000259  C0000024   1.000000000000e+00
    X0000259  C0000182   1.000000000000e+00
    X0000259  OBJ        1.000000000000e+00
    X0000260  C0000024   1.000000000000e+00
    X0000260  C0000291   1.000000000000e+00
    X0000260  OBJ        1.000000000000e+00
    X0000261  C0000024   1.000000000000e+00
    X0000261  C0000042   1.000000000000e+00
    X0000261  OBJ        1.000000000000e+00
    X0000262  C0000024   1.000000000000e+00
    X0000262  C0000053   1.000000000000e+00
    X0000262  OBJ        1.000000000000e+00
    X0000263  C0000024   1.000000000000e+00
    X0000263  C0000179   1.000000000000e+00
    X0000263  OBJ        1.000000000000e+00
    X0000264  C0000024   1.000000000000e+00
    X0000264  C0000128   1.000000000000e+00
    X0000264  OBJ        1.000000000000e+00
    X0000265  C0000024   1.000000000000e+00
    X0000265  C0000135   1.000000000000e+00
    X0000265  OBJ        1.000000000000e+00
    X0000266  C0000024   1.000000000000e+00
    X0000266  C0000111   1.000000000000e+00
    X0000266  OBJ        1.000000000000e+00
    X0000267  C0000012   1.000000000000e+00
    X0000267  C0000024   1.000000000000e+00
    X0000267  OBJ        1.000000000000e+00
    X0000268  C0000024   1.000000000000e+00
    X0000268  C0000155   1.000000000000e+00
    X0000268  OBJ        1.000000000000e+00
    X0000269  C0000024   1.000000000000e+00
    X0000269  C0000167   1.000000000000e+00
    X0000269  OBJ        1.000000000000e+00
    X0000270  C0000024   1.000000000000e+00
    X0000270  C0000184   1.000000000000e+00
    X0000270  OBJ        1.000000000000e+00
    X0000271  C0000024   1.000000000000e+00
    X0000271  C0000188   1.000000000000e+00
    X0000271  OBJ        1.000000000000e+00
    X0000272  C0000024   1.000000000000e+00
    X0000272  C0000192   1.000000000000e+00
    X0000272  OBJ        1.000000000000e+00
    X0000273  C0000024   1.000000000000e+00
    X0000273  C0000287   1.000000000000e+00
    X0000273  OBJ        1.000000000000e+00
    X0000274  C0000024   1.000000000000e+00
    X0000274  C0000286   1.000000000000e+00
    X0000274  OBJ        1.000000000000e+00
    X0000275  C0000024   1.000000000000e+00
    X0000275  C0000298   1.000000000000e+00
    X0000275  OBJ        1.000000000000e+00
    X0000276  C0000024   1.000000000000e+00
    X0000276  C0000288   1.000000000000e+00
    X0000276  OBJ        1.000000000000e+00
    X0000277  C0000024   1.000000000000e+00
    X0000277  C0000032   1.000000000000e+00
    X0000277  OBJ        1.000000000000e+00
    X0000278  C0000024   1.000000000000e+00
    X0000278  C0000036   1.000000000000e+00
    X0000278  OBJ        1.000000000000e+00
    X0000279  C0000024   1.000000000000e+00
    X0000279  C0000040   1.000000000000e+00
    X0000279  OBJ        1.000000000000e+00
    X0000280  C0000024   1.000000000000e+00
    X0000280  C0000030   1.000000000000e+00
    X0000280  OBJ        1.000000000000e+00
    X0000281  C0000024   1.000000000000e+00
    X0000281  C0000050   1.000000000000e+00
    X0000281  OBJ        1.000000000000e+00
    X0000282  C0000024   1.000000000000e+00
    X0000282  C0000195   1.000000000000e+00
    X0000282  OBJ        1.000000000000e+00
    X0000283  C0000024   1.000000000000e+00
    X0000283  C0000159   1.000000000000e+00
    X0000283  OBJ        1.000000000000e+00
    X0000284  C0000024   1.000000000000e+00
    X0000284  C0000171   1.000000000000e+00
    X0000284  OBJ        1.000000000000e+00
    X0000285  C0000024   1.000000000000e+00
    X0000285  C0000163   1.000000000000e+00
    X0000285  OBJ        1.000000000000e+00
    X0000286  C0000024   1.000000000000e+00
    X0000286  C0000136   1.000000000000e+00
    X0000286  OBJ        1.000000000000e+00
    X0000287  C0000024   1.000000000000e+00
    X0000287  C0000137   1.000000000000e+00
    X0000287  OBJ        1.000000000000e+00
    X0000288  C0000024   1.000000000000e+00
    X0000288  C0000134   1.000000000000e+00
    X0000288  OBJ        1.000000000000e+00
    X0000289  C0000013   1.000000000000e+00
    X0000289  C0000024   1.000000000000e+00
    X0000289  OBJ        1.000000000000e+00
    X0000290  C0000014   1.000000000000e+00
    X0000290  C0000024   1.000000000000e+00
    X0000290  OBJ        1.000000000000e+00
    X0000291  C0000006   1.000000000000e+00
    X0000291  C0000024   1.000000000000e+00
    X0000291  OBJ        1.000000000000e+00
    X0000292  C0000024   1.000000000000e+00
    X0000292  C0000109   1.000000000000e+00
    X0000292  OBJ        1.000000000000e+00
    X0000293  C0000024   1.000000000000e+00
    X0000293  C0000105   1.000000000000e+00
    X0000293  OBJ        1.000000000000e+00
    X0000294  C0000024   1.000000000000e+00
    X0000294  C0000103   1.000000000000e+00
    X0000294  OBJ        1.000000000000e+00
    X0000295  C0000024   1.000000000000e+00
    X0000295  C0000099   1.000000000000e+00
    X0000295  OBJ        1.000000000000e+00
    X0000296  C0000024   1.000000000000e+00
    X0000296  C0000097   1.000000000000e+00
    X0000296  OBJ        1.000000000000e+00
    X0000297  C0000024   1.000000000000e+00
    X0000297  C0000094   1.000000000000e+00
    X0000297  OBJ        1.000000000000e+00
    X0000298  C0000019   1.000000000000e+00
    X0000298  C0000041   1.000000000000e+00
    X0000298  OBJ        1.000000000000e+00
    X0000299  C0000041   1.000000000000e+00
    X0000299  C0000056   1.000000000000e+00
    X0000299  OBJ        1.000000000000e+00
    X0000300  C0000051   1.000000000000e+00
    X0000300  C0000054   1.000000000000e+00
    X0000300  OBJ        1.000000000000e+00
    X0000301  C0000051   1.000000000000e+00
    X0000301  C0000192   1.000000000000e+00
    X0000301  OBJ        1.000000000000e+00
    X0000302  C0000051   1.000000000000e+00
    X0000302  C0000195   1.000000000000e+00
    X0000302  OBJ        1.000000000000e+00
    X0000303  C0000145   1.000000000000e+00
    X0000303  C0000177   1.000000000000e+00
    X0000303  OBJ        1.000000000000e+00
    X0000304  C0000145   1.000000000000e+00
    X0000304  C0000239   1.000000000000e+00
    X0000304  OBJ        1.000000000000e+00
    X0000305  C0000145   1.000000000000e+00
    X0000305  C0000243   1.000000000000e+00
    X0000305  OBJ        1.000000000000e+00
    X0000306  C0000145   1.000000000000e+00
    X0000306  C0000247   1.000000000000e+00
    X0000306  OBJ        1.000000000000e+00
    X0000307  C0000145   1.000000000000e+00
    X0000307  C0000251   1.000000000000e+00
    X0000307  OBJ        1.000000000000e+00
    X0000308  C0000145   1.000000000000e+00
    X0000308  C0000255   1.000000000000e+00
    X0000308  OBJ        1.000000000000e+00
    X0000309  C0000145   1.000000000000e+00
    X0000309  C0000259   1.000000000000e+00
    X0000309  OBJ        1.000000000000e+00
    X0000310  C0000145   1.000000000000e+00
    X0000310  C0000263   1.000000000000e+00
    X0000310  OBJ        1.000000000000e+00
    X0000311  C0000145   1.000000000000e+00
    X0000311  C0000267   1.000000000000e+00
    X0000311  OBJ        1.000000000000e+00
    X0000312  C0000145   1.000000000000e+00
    X0000312  C0000271   1.000000000000e+00
    X0000312  OBJ        1.000000000000e+00
    X0000313  C0000145   1.000000000000e+00
    X0000313  C0000275   1.000000000000e+00
    X0000313  OBJ        1.000000000000e+00
    X0000314  C0000145   1.000000000000e+00
    X0000314  C0000279   1.000000000000e+00
    X0000314  OBJ        1.000000000000e+00
    X0000315  C0000145   1.000000000000e+00
    X0000315  C0000281   1.000000000000e+00
    X0000315  OBJ        1.000000000000e+00
    X0000316  C0000145   1.000000000000e+00
    X0000316  C0000181   1.000000000000e+00
    X0000316  OBJ        1.000000000000e+00
    X0000317  C0000145   1.000000000000e+00
    X0000317  C0000186   1.000000000000e+00
    X0000317  OBJ        1.000000000000e+00
    X0000318  C0000145   1.000000000000e+00
    X0000318  C0000190   1.000000000000e+00
    X0000318  OBJ        1.000000000000e+00
    X0000319  C0000145   1.000000000000e+00
    X0000319  C0000194   1.000000000000e+00
    X0000319  OBJ        1.000000000000e+00
    X0000320  C0000145   1.000000000000e+00
    X0000320  C0000197   1.000000000000e+00
    X0000320  OBJ        1.000000000000e+00
    X0000321  C0000145   1.000000000000e+00
    X0000321  C0000173   1.000000000000e+00
    X0000321  OBJ        1.000000000000e+00
    X0000322  C0000054   1.000000000000e+00
    X0000322  C0000168   1.000000000000e+00
    X0000322  OBJ        1.000000000000e+00
    X0000323  C0000168   1.000000000000e+00
    X0000323  C0000295   1.000000000000e+00
    X0000323  OBJ        1.000000000000e+00
    X0000324  C0000046   1.000000000000e+00
    X0000324  C0000168   1.000000000000e+00
    X0000324  OBJ        1.000000000000e+00
    X0000325  C0000168   1.000000000000e+00
    X0000325  C0000175   1.000000000000e+00
    X0000325  OBJ        1.000000000000e+00
    X0000326  C0000168   1.000000000000e+00
    X0000326  C0000182   1.000000000000e+00
    X0000326  OBJ        1.000000000000e+00
    X0000327  C0000168   1.000000000000e+00
    X0000327  C0000291   1.000000000000e+00
    X0000327  OBJ        1.000000000000e+00
    X0000328  C0000042   1.000000000000e+00
    X0000328  C0000168   1.000000000000e+00
    X0000328  OBJ        1.000000000000e+00
    X0000329  C0000053   1.000000000000e+00
    X0000329  C0000168   1.000000000000e+00
    X0000329  OBJ        1.000000000000e+00
    X0000330  C0000168   1.000000000000e+00
    X0000330  C0000179   1.000000000000e+00
    X0000330  OBJ        1.000000000000e+00
    X0000331  C0000135   1.000000000000e+00
    X0000331  C0000168   1.000000000000e+00
    X0000331  OBJ        1.000000000000e+00
    X0000332  C0000167   1.000000000000e+00
    X0000332  C0000168   1.000000000000e+00
    X0000332  OBJ        1.000000000000e+00
    X0000333  C0000168   1.000000000000e+00
    X0000333  C0000184   1.000000000000e+00
    X0000333  OBJ        1.000000000000e+00
    X0000334  C0000168   1.000000000000e+00
    X0000334  C0000188   1.000000000000e+00
    X0000334  OBJ        1.000000000000e+00
    X0000335  C0000168   1.000000000000e+00
    X0000335  C0000192   1.000000000000e+00
    X0000335  OBJ        1.000000000000e+00
    X0000336  C0000168   1.000000000000e+00
    X0000336  C0000287   1.000000000000e+00
    X0000336  OBJ        1.000000000000e+00
    X0000337  C0000168   1.000000000000e+00
    X0000337  C0000286   1.000000000000e+00
    X0000337  OBJ        1.000000000000e+00
    X0000338  C0000168   1.000000000000e+00
    X0000338  C0000288   1.000000000000e+00
    X0000338  OBJ        1.000000000000e+00
    X0000339  C0000036   1.000000000000e+00
    X0000339  C0000168   1.000000000000e+00
    X0000339  OBJ        1.000000000000e+00
    X0000340  C0000040   1.000000000000e+00
    X0000340  C0000168   1.000000000000e+00
    X0000340  OBJ        1.000000000000e+00
    X0000341  C0000050   1.000000000000e+00
    X0000341  C0000168   1.000000000000e+00
    X0000341  OBJ        1.000000000000e+00
    X0000342  C0000168   1.000000000000e+00
    X0000342  C0000195   1.000000000000e+00
    X0000342  OBJ        1.000000000000e+00
    X0000343  C0000168   1.000000000000e+00
    X0000343  C0000171   1.000000000000e+00
    X0000343  OBJ        1.000000000000e+00
    X0000344  C0000136   1.000000000000e+00
    X0000344  C0000168   1.000000000000e+00
    X0000344  OBJ        1.000000000000e+00
    X0000345  C0000137   1.000000000000e+00
    X0000345  C0000168   1.000000000000e+00
    X0000345  OBJ        1.000000000000e+00
    X0000346  C0000134   1.000000000000e+00
    X0000346  C0000168   1.000000000000e+00
    X0000346  OBJ        1.000000000000e+00
    X0000347  C0000013   1.000000000000e+00
    X0000347  C0000168   1.000000000000e+00
    X0000347  OBJ        1.000000000000e+00
    X0000348  C0000014   1.000000000000e+00
    X0000348  C0000168   1.000000000000e+00
    X0000348  OBJ        1.000000000000e+00
    X0000349  C0000006   1.000000000000e+00
    X0000349  C0000168   1.000000000000e+00
    X0000349  OBJ        1.000000000000e+00
    X0000350  C0000105   1.000000000000e+00
    X0000350  C0000168   1.000000000000e+00
    X0000350  OBJ        1.000000000000e+00
    X0000351  C0000103   1.000000000000e+00
    X0000351  C0000168   1.000000000000e+00
    X0000351  OBJ        1.000000000000e+00
    X0000352  C0000099   1.000000000000e+00
    X0000352  C0000168   1.000000000000e+00
    X0000352  OBJ        1.000000000000e+00
    X0000353  C0000097   1.000000000000e+00
    X0000353  C0000168   1.000000000000e+00
    X0000353  OBJ        1.000000000000e+00
    X0000354  C0000094   1.000000000000e+00
    X0000354  C0000168   1.000000000000e+00
    X0000354  OBJ        1.000000000000e+00
    X0000355  C0000054   1.000000000000e+00
    X0000355  C0000176   1.000000000000e+00
    X0000355  OBJ        1.000000000000e+00
    X0000356  C0000046   1.000000000000e+00
    X0000356  C0000176   1.000000000000e+00
    X0000356  OBJ        1.000000000000e+00
    X0000357  C0000175   1.000000000000e+00
    X0000357  C0000176   1.000000000000e+00
    X0000357  OBJ        1.000000000000e+00
    X0000358  C0000176   1.000000000000e+00
    X0000358  C0000182   1.000000000000e+00
    X0000358  OBJ        1.000000000000e+00
    X0000359  C0000042   1.000000000000e+00
    X0000359  C0000176   1.000000000000e+00
    X0000359  OBJ        1.000000000000e+00
    X0000360  C0000053   1.000000000000e+00
    X0000360  C0000176   1.000000000000e+00
    X0000360  OBJ        1.000000000000e+00
    X0000361  C0000176   1.000000000000e+00
    X0000361  C0000179   1.000000000000e+00
    X0000361  OBJ        1.000000000000e+00
    X0000362  C0000135   1.000000000000e+00
    X0000362  C0000176   1.000000000000e+00
    X0000362  OBJ        1.000000000000e+00
    X0000363  C0000176   1.000000000000e+00
    X0000363  C0000184   1.000000000000e+00
    X0000363  OBJ        1.000000000000e+00
    X0000364  C0000176   1.000000000000e+00
    X0000364  C0000188   1.000000000000e+00
    X0000364  OBJ        1.000000000000e+00
    X0000365  C0000176   1.000000000000e+00
    X0000365  C0000192   1.000000000000e+00
    X0000365  OBJ        1.000000000000e+00
    X0000366  C0000176   1.000000000000e+00
    X0000366  C0000287   1.000000000000e+00
    X0000366  OBJ        1.000000000000e+00
    X0000367  C0000176   1.000000000000e+00
    X0000367  C0000286   1.000000000000e+00
    X0000367  OBJ        1.000000000000e+00
    X0000368  C0000176   1.000000000000e+00
    X0000368  C0000288   1.000000000000e+00
    X0000368  OBJ        1.000000000000e+00
    X0000369  C0000050   1.000000000000e+00
    X0000369  C0000176   1.000000000000e+00
    X0000369  OBJ        1.000000000000e+00
    X0000370  C0000176   1.000000000000e+00
    X0000370  C0000195   1.000000000000e+00
    X0000370  OBJ        1.000000000000e+00
    X0000371  C0000136   1.000000000000e+00
    X0000371  C0000176   1.000000000000e+00
    X0000371  OBJ        1.000000000000e+00
    X0000372  C0000137   1.000000000000e+00
    X0000372  C0000176   1.000000000000e+00
    X0000372  OBJ        1.000000000000e+00
    X0000373  C0000134   1.000000000000e+00
    X0000373  C0000176   1.000000000000e+00
    X0000373  OBJ        1.000000000000e+00
    X0000374  C0000013   1.000000000000e+00
    X0000374  C0000176   1.000000000000e+00
    X0000374  OBJ        1.000000000000e+00
    X0000375  C0000014   1.000000000000e+00
    X0000375  C0000176   1.000000000000e+00
    X0000375  OBJ        1.000000000000e+00
    X0000376  C0000006   1.000000000000e+00
    X0000376  C0000176   1.000000000000e+00
    X0000376  OBJ        1.000000000000e+00
    X0000377  C0000099   1.000000000000e+00
    X0000377  C0000176   1.000000000000e+00
    X0000377  OBJ        1.000000000000e+00
    X0000378  C0000097   1.000000000000e+00
    X0000378  C0000176   1.000000000000e+00
    X0000378  OBJ        1.000000000000e+00
    X0000379  C0000094   1.000000000000e+00
    X0000379  C0000176   1.000000000000e+00
    X0000379  OBJ        1.000000000000e+00
    X0000380  C0000178   1.000000000000e+00
    X0000380  C0000271   1.000000000000e+00
    X0000380  OBJ        1.000000000000e+00
    X0000381  C0000178   1.000000000000e+00
    X0000381  C0000275   1.000000000000e+00
    X0000381  OBJ        1.000000000000e+00
    X0000382  C0000178   1.000000000000e+00
    X0000382  C0000279   1.000000000000e+00
    X0000382  OBJ        1.000000000000e+00
    X0000383  C0000178   1.000000000000e+00
    X0000383  C0000281   1.000000000000e+00
    X0000383  OBJ        1.000000000000e+00
    X0000384  C0000081   1.000000000000e+00
    X0000384  C0000127   1.000000000000e+00
    X0000384  OBJ        1.000000000000e+00
    X0000385  C0000087   1.000000000000e+00
    X0000385  C0000127   1.000000000000e+00
    X0000385  OBJ        1.000000000000e+00
    X0000386  C0000062   1.000000000000e+00
    X0000386  C0000127   1.000000000000e+00
    X0000386  OBJ        1.000000000000e+00
    X0000387  C0000127   1.000000000000e+00
    X0000387  C0000133   1.000000000000e+00
    X0000387  OBJ        1.000000000000e+00
    X0000388  C0000054   1.000000000000e+00
    X0000388  C0000131   1.000000000000e+00
    X0000388  OBJ        1.000000000000e+00
    X0000389  C0000131   1.000000000000e+00
    X0000389  C0000295   1.000000000000e+00
    X0000389  OBJ        1.000000000000e+00
    X0000390  C0000046   1.000000000000e+00
    X0000390  C0000131   1.000000000000e+00
    X0000390  OBJ        1.000000000000e+00
    X0000391  C0000026   1.000000000000e+00
    X0000391  C0000131   1.000000000000e+00
    X0000391  OBJ        1.000000000000e+00
    X0000392  C0000131   1.000000000000e+00
    X0000392  C0000175   1.000000000000e+00
    X0000392  OBJ        1.000000000000e+00
    X0000393  C0000131   1.000000000000e+00
    X0000393  C0000182   1.000000000000e+00
    X0000393  OBJ        1.000000000000e+00
    X0000394  C0000131   1.000000000000e+00
    X0000394  C0000291   1.000000000000e+00
    X0000394  OBJ        1.000000000000e+00
    X0000395  C0000042   1.000000000000e+00
    X0000395  C0000131   1.000000000000e+00
    X0000395  OBJ        1.000000000000e+00
    X0000396  C0000053   1.000000000000e+00
    X0000396  C0000131   1.000000000000e+00
    X0000396  OBJ        1.000000000000e+00
    X0000397  C0000131   1.000000000000e+00
    X0000397  C0000146   1.000000000000e+00
    X0000397  OBJ        1.000000000000e+00
    X0000398  C0000131   1.000000000000e+00
    X0000398  C0000179   1.000000000000e+00
    X0000398  OBJ        1.000000000000e+00
    X0000399  C0000128   1.000000000000e+00
    X0000399  C0000131   1.000000000000e+00
    X0000399  OBJ        1.000000000000e+00
    X0000400  C0000131   1.000000000000e+00
    X0000400  C0000135   1.000000000000e+00
    X0000400  OBJ        1.000000000000e+00
    X0000401  C0000111   1.000000000000e+00
    X0000401  C0000131   1.000000000000e+00
    X0000401  OBJ        1.000000000000e+00
    X0000402  C0000012   1.000000000000e+00
    X0000402  C0000131   1.000000000000e+00
    X0000402  OBJ        1.000000000000e+00
    X0000403  C0000131   1.000000000000e+00
    X0000403  C0000155   1.000000000000e+00
    X0000403  OBJ        1.000000000000e+00
    X0000404  C0000131   1.000000000000e+00
    X0000404  C0000167   1.000000000000e+00
    X0000404  OBJ        1.000000000000e+00
    X0000405  C0000131   1.000000000000e+00
    X0000405  C0000184   1.000000000000e+00
    X0000405  OBJ        1.000000000000e+00
    X0000406  C0000131   1.000000000000e+00
    X0000406  C0000188   1.000000000000e+00
    X0000406  OBJ        1.000000000000e+00
    X0000407  C0000131   1.000000000000e+00
    X0000407  C0000192   1.000000000000e+00
    X0000407  OBJ        1.000000000000e+00
    X0000408  C0000131   1.000000000000e+00
    X0000408  C0000304   1.000000000000e+00
    X0000408  OBJ        1.000000000000e+00
    X0000409  C0000131   1.000000000000e+00
    X0000409  C0000287   1.000000000000e+00
    X0000409  OBJ        1.000000000000e+00
    X0000410  C0000131   1.000000000000e+00
    X0000410  C0000286   1.000000000000e+00
    X0000410  OBJ        1.000000000000e+00
    X0000411  C0000131   1.000000000000e+00
    X0000411  C0000298   1.000000000000e+00
    X0000411  OBJ        1.000000000000e+00
    X0000412  C0000131   1.000000000000e+00
    X0000412  C0000288   1.000000000000e+00
    X0000412  OBJ        1.000000000000e+00
    X0000413  C0000032   1.000000000000e+00
    X0000413  C0000131   1.000000000000e+00
    X0000413  OBJ        1.000000000000e+00
    X0000414  C0000036   1.000000000000e+00
    X0000414  C0000131   1.000000000000e+00
    X0000414  OBJ        1.000000000000e+00
    X0000415  C0000040   1.000000000000e+00
    X0000415  C0000131   1.000000000000e+00
    X0000415  OBJ        1.000000000000e+00
    X0000416  C0000030   1.000000000000e+00
    X0000416  C0000131   1.000000000000e+00
    X0000416  OBJ        1.000000000000e+00
    X0000417  C0000050   1.000000000000e+00
    X0000417  C0000131   1.000000000000e+00
    X0000417  OBJ        1.000000000000e+00
    X0000418  C0000131   1.000000000000e+00
    X0000418  C0000151   1.000000000000e+00
    X0000418  OBJ        1.000000000000e+00
    X0000419  C0000131   1.000000000000e+00
    X0000419  C0000195   1.000000000000e+00
    X0000419  OBJ        1.000000000000e+00
    X0000420  C0000131   1.000000000000e+00
    X0000420  C0000159   1.000000000000e+00
    X0000420  OBJ        1.000000000000e+00
    X0000421  C0000131   1.000000000000e+00
    X0000421  C0000171   1.000000000000e+00
    X0000421  OBJ        1.000000000000e+00
    X0000422  C0000131   1.000000000000e+00
    X0000422  C0000163   1.000000000000e+00
    X0000422  OBJ        1.000000000000e+00
    X0000423  C0000131   1.000000000000e+00
    X0000423  C0000136   1.000000000000e+00
    X0000423  OBJ        1.000000000000e+00
    X0000424  C0000131   1.000000000000e+00
    X0000424  C0000137   1.000000000000e+00
    X0000424  OBJ        1.000000000000e+00
    X0000425  C0000131   1.000000000000e+00
    X0000425  C0000134   1.000000000000e+00
    X0000425  OBJ        1.000000000000e+00
    X0000426  C0000013   1.000000000000e+00
    X0000426  C0000131   1.000000000000e+00
    X0000426  OBJ        1.000000000000e+00
    X0000427  C0000014   1.000000000000e+00
    X0000427  C0000131   1.000000000000e+00
    X0000427  OBJ        1.000000000000e+00
    X0000428  C0000016   1.000000000000e+00
    X0000428  C0000131   1.000000000000e+00
    X0000428  OBJ        1.000000000000e+00
    X0000429  C0000006   1.000000000000e+00
    X0000429  C0000131   1.000000000000e+00
    X0000429  OBJ        1.000000000000e+00
    X0000430  C0000109   1.000000000000e+00
    X0000430  C0000131   1.000000000000e+00
    X0000430  OBJ        1.000000000000e+00
    X0000431  C0000105   1.000000000000e+00
    X0000431  C0000131   1.000000000000e+00
    X0000431  OBJ        1.000000000000e+00
    X0000432  C0000103   1.000000000000e+00
    X0000432  C0000131   1.000000000000e+00
    X0000432  OBJ        1.000000000000e+00
    X0000433  C0000099   1.000000000000e+00
    X0000433  C0000131   1.000000000000e+00
    X0000433  OBJ        1.000000000000e+00
    X0000434  C0000117   1.000000000000e+00
    X0000434  C0000131   1.000000000000e+00
    X0000434  OBJ        1.000000000000e+00
    X0000435  C0000097   1.000000000000e+00
    X0000435  C0000131   1.000000000000e+00
    X0000435  OBJ        1.000000000000e+00
    X0000436  C0000094   1.000000000000e+00
    X0000436  C0000131   1.000000000000e+00
    X0000436  OBJ        1.000000000000e+00
    X0000437  C0000085   1.000000000000e+00
    X0000437  C0000110   1.000000000000e+00
    X0000437  OBJ        1.000000000000e+00
    X0000438  C0000066   1.000000000000e+00
    X0000438  C0000110   1.000000000000e+00
    X0000438  OBJ        1.000000000000e+00
    X0000439  C0000064   1.000000000000e+00
    X0000439  C0000110   1.000000000000e+00
    X0000439  OBJ        1.000000000000e+00
    X0000440  C0000107   1.000000000000e+00
    X0000440  C0000110   1.000000000000e+00
    X0000440  OBJ        1.000000000000e+00
    X0000441  C0000096   1.000000000000e+00
    X0000441  C0000110   1.000000000000e+00
    X0000441  OBJ        1.000000000000e+00
    X0000442  C0000093   1.000000000000e+00
    X0000442  C0000110   1.000000000000e+00
    X0000442  OBJ        1.000000000000e+00
    X0000443  C0000091   1.000000000000e+00
    X0000443  C0000110   1.000000000000e+00
    X0000443  OBJ        1.000000000000e+00
    X0000444  C0000079   1.000000000000e+00
    X0000444  C0000110   1.000000000000e+00
    X0000444  OBJ        1.000000000000e+00
    X0000445  C0000083   1.000000000000e+00
    X0000445  C0000110   1.000000000000e+00
    X0000445  OBJ        1.000000000000e+00
    X0000446  C0000011   1.000000000000e+00
    X0000446  C0000087   1.000000000000e+00
    X0000446  OBJ        1.000000000000e+00
    X0000447  C0000011   1.000000000000e+00
    X0000447  C0000062   1.000000000000e+00
    X0000447  OBJ        1.000000000000e+00
    X0000448  C0000007   1.000000000000e+00
    X0000448  C0000054   1.000000000000e+00
    X0000448  OBJ        1.000000000000e+00
    X0000449  C0000007   1.000000000000e+00
    X0000449  C0000295   1.000000000000e+00
    X0000449  OBJ        1.000000000000e+00
    X0000450  C0000007   1.000000000000e+00
    X0000450  C0000046   1.000000000000e+00
    X0000450  OBJ        1.000000000000e+00
    X0000451  C0000007   1.000000000000e+00
    X0000451  C0000175   1.000000000000e+00
    X0000451  OBJ        1.000000000000e+00
    X0000452  C0000007   1.000000000000e+00
    X0000452  C0000182   1.000000000000e+00
    X0000452  OBJ        1.000000000000e+00
    X0000453  C0000007   1.000000000000e+00
    X0000453  C0000291   1.000000000000e+00
    X0000453  OBJ        1.000000000000e+00
    X0000454  C0000007   1.000000000000e+00
    X0000454  C0000042   1.000000000000e+00
    X0000454  OBJ        1.000000000000e+00
    X0000455  C0000007   1.000000000000e+00
    X0000455  C0000053   1.000000000000e+00
    X0000455  OBJ        1.000000000000e+00
    X0000456  C0000007   1.000000000000e+00
    X0000456  C0000179   1.000000000000e+00
    X0000456  OBJ        1.000000000000e+00
    X0000457  C0000007   1.000000000000e+00
    X0000457  C0000135   1.000000000000e+00
    X0000457  OBJ        1.000000000000e+00
    X0000458  C0000007   1.000000000000e+00
    X0000458  C0000167   1.000000000000e+00
    X0000458  OBJ        1.000000000000e+00
    X0000459  C0000007   1.000000000000e+00
    X0000459  C0000184   1.000000000000e+00
    X0000459  OBJ        1.000000000000e+00
    X0000460  C0000007   1.000000000000e+00
    X0000460  C0000188   1.000000000000e+00
    X0000460  OBJ        1.000000000000e+00
    X0000461  C0000007   1.000000000000e+00
    X0000461  C0000192   1.000000000000e+00
    X0000461  OBJ        1.000000000000e+00
    X0000462  C0000007   1.000000000000e+00
    X0000462  C0000287   1.000000000000e+00
    X0000462  OBJ        1.000000000000e+00
    X0000463  C0000007   1.000000000000e+00
    X0000463  C0000286   1.000000000000e+00
    X0000463  OBJ        1.000000000000e+00
    X0000464  C0000007   1.000000000000e+00
    X0000464  C0000288   1.000000000000e+00
    X0000464  OBJ        1.000000000000e+00
    X0000465  C0000007   1.000000000000e+00
    X0000465  C0000036   1.000000000000e+00
    X0000465  OBJ        1.000000000000e+00
    X0000466  C0000007   1.000000000000e+00
    X0000466  C0000040   1.000000000000e+00
    X0000466  OBJ        1.000000000000e+00
    X0000467  C0000007   1.000000000000e+00
    X0000467  C0000050   1.000000000000e+00
    X0000467  OBJ        1.000000000000e+00
    X0000468  C0000007   1.000000000000e+00
    X0000468  C0000195   1.000000000000e+00
    X0000468  OBJ        1.000000000000e+00
    X0000469  C0000007   1.000000000000e+00
    X0000469  C0000171   1.000000000000e+00
    X0000469  OBJ        1.000000000000e+00
    X0000470  C0000007   1.000000000000e+00
    X0000470  C0000136   1.000000000000e+00
    X0000470  OBJ        1.000000000000e+00
    X0000471  C0000007   1.000000000000e+00
    X0000471  C0000137   1.000000000000e+00
    X0000471  OBJ        1.000000000000e+00
    X0000472  C0000007   1.000000000000e+00
    X0000472  C0000134   1.000000000000e+00
    X0000472  OBJ        1.000000000000e+00
    X0000473  C0000007   1.000000000000e+00
    X0000473  C0000013   1.000000000000e+00
    X0000473  OBJ        1.000000000000e+00
    X0000474  C0000007   1.000000000000e+00
    X0000474  C0000014   1.000000000000e+00
    X0000474  OBJ        1.000000000000e+00
    X0000475  C0000006   1.000000000000e+00
    X0000475  C0000007   1.000000000000e+00
    X0000475  OBJ        1.000000000000e+00
    X0000476  C0000007   1.000000000000e+00
    X0000476  C0000105   1.000000000000e+00
    X0000476  OBJ        1.000000000000e+00
    X0000477  C0000007   1.000000000000e+00
    X0000477  C0000103   1.000000000000e+00
    X0000477  OBJ        1.000000000000e+00
    X0000478  C0000007   1.000000000000e+00
    X0000478  C0000099   1.000000000000e+00
    X0000478  OBJ        1.000000000000e+00
    X0000479  C0000007   1.000000000000e+00
    X0000479  C0000097   1.000000000000e+00
    X0000479  OBJ        1.000000000000e+00
    X0000480  C0000007   1.000000000000e+00
    X0000480  C0000094   1.000000000000e+00
    X0000480  OBJ        1.000000000000e+00
    X0000481  C0000165   1.000000000000e+00
    X0000481  C0000199   1.000000000000e+00
    X0000481  OBJ        1.000000000000e+00
    X0000482  C0000169   1.000000000000e+00
    X0000482  C0000199   1.000000000000e+00
    X0000482  OBJ        1.000000000000e+00
    X0000483  C0000177   1.000000000000e+00
    X0000483  C0000199   1.000000000000e+00
    X0000483  OBJ        1.000000000000e+00
    X0000484  C0000199   1.000000000000e+00
    X0000484  C0000207   1.000000000000e+00
    X0000484  OBJ        1.000000000000e+00
    X0000485  C0000199   1.000000000000e+00
    X0000485  C0000223   1.000000000000e+00
    X0000485  OBJ        1.000000000000e+00
    X0000486  C0000199   1.000000000000e+00
    X0000486  C0000215   1.000000000000e+00
    X0000486  OBJ        1.000000000000e+00
    X0000487  C0000199   1.000000000000e+00
    X0000487  C0000219   1.000000000000e+00
    X0000487  OBJ        1.000000000000e+00
    X0000488  C0000199   1.000000000000e+00
    X0000488  C0000211   1.000000000000e+00
    X0000488  OBJ        1.000000000000e+00
    X0000489  C0000199   1.000000000000e+00
    X0000489  C0000227   1.000000000000e+00
    X0000489  OBJ        1.000000000000e+00
    X0000490  C0000199   1.000000000000e+00
    X0000490  C0000231   1.000000000000e+00
    X0000490  OBJ        1.000000000000e+00
    X0000491  C0000199   1.000000000000e+00
    X0000491  C0000235   1.000000000000e+00
    X0000491  OBJ        1.000000000000e+00
    X0000492  C0000199   1.000000000000e+00
    X0000492  C0000239   1.000000000000e+00
    X0000492  OBJ        1.000000000000e+00
    X0000493  C0000199   1.000000000000e+00
    X0000493  C0000243   1.000000000000e+00
    X0000493  OBJ        1.000000000000e+00
    X0000494  C0000199   1.000000000000e+00
    X0000494  C0000247   1.000000000000e+00
    X0000494  OBJ        1.000000000000e+00
    X0000495  C0000199   1.000000000000e+00
    X0000495  C0000251   1.000000000000e+00
    X0000495  OBJ        1.000000000000e+00
    X0000496  C0000199   1.000000000000e+00
    X0000496  C0000255   1.000000000000e+00
    X0000496  OBJ        1.000000000000e+00
    X0000497  C0000199   1.000000000000e+00
    X0000497  C0000259   1.000000000000e+00
    X0000497  OBJ        1.000000000000e+00
    X0000498  C0000199   1.000000000000e+00
    X0000498  C0000263   1.000000000000e+00
    X0000498  OBJ        1.000000000000e+00
    X0000499  C0000199   1.000000000000e+00
    X0000499  C0000267   1.000000000000e+00
    X0000499  OBJ        1.000000000000e+00
    X0000500  C0000199   1.000000000000e+00
    X0000500  C0000271   1.000000000000e+00
    X0000500  OBJ        1.000000000000e+00
    X0000501  C0000199   1.000000000000e+00
    X0000501  C0000275   1.000000000000e+00
    X0000501  OBJ        1.000000000000e+00
    X0000502  C0000199   1.000000000000e+00
    X0000502  C0000279   1.000000000000e+00
    X0000502  OBJ        1.000000000000e+00
    X0000503  C0000199   1.000000000000e+00
    X0000503  C0000281   1.000000000000e+00
    X0000503  OBJ        1.000000000000e+00
    X0000504  C0000181   1.000000000000e+00
    X0000504  C0000199   1.000000000000e+00
    X0000504  OBJ        1.000000000000e+00
    X0000505  C0000186   1.000000000000e+00
    X0000505  C0000199   1.000000000000e+00
    X0000505  OBJ        1.000000000000e+00
    X0000506  C0000190   1.000000000000e+00
    X0000506  C0000199   1.000000000000e+00
    X0000506  OBJ        1.000000000000e+00
    X0000507  C0000194   1.000000000000e+00
    X0000507  C0000199   1.000000000000e+00
    X0000507  OBJ        1.000000000000e+00
    X0000508  C0000197   1.000000000000e+00
    X0000508  C0000199   1.000000000000e+00
    X0000508  OBJ        1.000000000000e+00
    X0000509  C0000149   1.000000000000e+00
    X0000509  C0000199   1.000000000000e+00
    X0000509  OBJ        1.000000000000e+00
    X0000510  C0000153   1.000000000000e+00
    X0000510  C0000199   1.000000000000e+00
    X0000510  OBJ        1.000000000000e+00
    X0000511  C0000157   1.000000000000e+00
    X0000511  C0000199   1.000000000000e+00
    X0000511  OBJ        1.000000000000e+00
    X0000512  C0000161   1.000000000000e+00
    X0000512  C0000199   1.000000000000e+00
    X0000512  OBJ        1.000000000000e+00
    X0000513  C0000173   1.000000000000e+00
    X0000513  C0000199   1.000000000000e+00
    X0000513  OBJ        1.000000000000e+00
    X0000514  C0000071   1.000000000000e+00
    X0000514  C0000199   1.000000000000e+00
    X0000514  OBJ        1.000000000000e+00
    X0000515  C0000073   1.000000000000e+00
    X0000515  C0000199   1.000000000000e+00
    X0000515  OBJ        1.000000000000e+00
    X0000516  C0000200   1.000000000000e+00
    X0000516  C0000209   1.000000000000e+00
    X0000516  OBJ        1.000000000000e+00
    X0000517  C0000200   1.000000000000e+00
    X0000517  C0000213   1.000000000000e+00
    X0000517  OBJ        1.000000000000e+00
    X0000518  C0000200   1.000000000000e+00
    X0000518  C0000217   1.000000000000e+00
    X0000518  OBJ        1.000000000000e+00
    X0000519  C0000200   1.000000000000e+00
    X0000519  C0000221   1.000000000000e+00
    X0000519  OBJ        1.000000000000e+00
    X0000520  C0000200   1.000000000000e+00
    X0000520  C0000225   1.000000000000e+00
    X0000520  OBJ        1.000000000000e+00
    X0000521  C0000200   1.000000000000e+00
    X0000521  C0000229   1.000000000000e+00
    X0000521  OBJ        1.000000000000e+00
    X0000522  C0000200   1.000000000000e+00
    X0000522  C0000233   1.000000000000e+00
    X0000522  OBJ        1.000000000000e+00
    X0000523  C0000200   1.000000000000e+00
    X0000523  C0000237   1.000000000000e+00
    X0000523  OBJ        1.000000000000e+00
    X0000524  C0000200   1.000000000000e+00
    X0000524  C0000241   1.000000000000e+00
    X0000524  OBJ        1.000000000000e+00
    X0000525  C0000200   1.000000000000e+00
    X0000525  C0000245   1.000000000000e+00
    X0000525  OBJ        1.000000000000e+00
    X0000526  C0000200   1.000000000000e+00
    X0000526  C0000249   1.000000000000e+00
    X0000526  OBJ        1.000000000000e+00
    X0000527  C0000200   1.000000000000e+00
    X0000527  C0000253   1.000000000000e+00
    X0000527  OBJ        1.000000000000e+00
    X0000528  C0000200   1.000000000000e+00
    X0000528  C0000257   1.000000000000e+00
    X0000528  OBJ        1.000000000000e+00
    X0000529  C0000200   1.000000000000e+00
    X0000529  C0000261   1.000000000000e+00
    X0000529  OBJ        1.000000000000e+00
    X0000530  C0000200   1.000000000000e+00
    X0000530  C0000269   1.000000000000e+00
    X0000530  OBJ        1.000000000000e+00
    X0000531  C0000200   1.000000000000e+00
    X0000531  C0000277   1.000000000000e+00
    X0000531  OBJ        1.000000000000e+00
    X0000532  C0000200   1.000000000000e+00
    X0000532  C0000280   1.000000000000e+00
    X0000532  OBJ        1.000000000000e+00
    X0000533  C0000200   1.000000000000e+00
    X0000533  C0000282   1.000000000000e+00
    X0000533  OBJ        1.000000000000e+00
    X0000534  C0000200   1.000000000000e+00
    X0000534  C0000205   1.000000000000e+00
    X0000534  OBJ        1.000000000000e+00
    X0000535  C0000200   1.000000000000e+00
    X0000535  C0000265   1.000000000000e+00
    X0000535  OBJ        1.000000000000e+00
    X0000536  C0000200   1.000000000000e+00
    X0000536  C0000273   1.000000000000e+00
    X0000536  OBJ        1.000000000000e+00
    X0000537  C0000165   1.000000000000e+00
    X0000537  C0000201   1.000000000000e+00
    X0000537  OBJ        1.000000000000e+00
    X0000538  C0000169   1.000000000000e+00
    X0000538  C0000201   1.000000000000e+00
    X0000538  OBJ        1.000000000000e+00
    X0000539  C0000177   1.000000000000e+00
    X0000539  C0000201   1.000000000000e+00
    X0000539  OBJ        1.000000000000e+00
    X0000540  C0000201   1.000000000000e+00
    X0000540  C0000207   1.000000000000e+00
    X0000540  OBJ        1.000000000000e+00
    X0000541  C0000201   1.000000000000e+00
    X0000541  C0000223   1.000000000000e+00
    X0000541  OBJ        1.000000000000e+00
    X0000542  C0000201   1.000000000000e+00
    X0000542  C0000215   1.000000000000e+00
    X0000542  OBJ        1.000000000000e+00
    X0000543  C0000201   1.000000000000e+00
    X0000543  C0000219   1.000000000000e+00
    X0000543  OBJ        1.000000000000e+00
    X0000544  C0000201   1.000000000000e+00
    X0000544  C0000211   1.000000000000e+00
    X0000544  OBJ        1.000000000000e+00
    X0000545  C0000201   1.000000000000e+00
    X0000545  C0000227   1.000000000000e+00
    X0000545  OBJ        1.000000000000e+00
    X0000546  C0000201   1.000000000000e+00
    X0000546  C0000231   1.000000000000e+00
    X0000546  OBJ        1.000000000000e+00
    X0000547  C0000201   1.000000000000e+00
    X0000547  C0000235   1.000000000000e+00
    X0000547  OBJ        1.000000000000e+00
    X0000548  C0000201   1.000000000000e+00
    X0000548  C0000239   1.000000000000e+00
    X0000548  OBJ        1.000000000000e+00
    X0000549  C0000201   1.000000000000e+00
    X0000549  C0000243   1.000000000000e+00
    X0000549  OBJ        1.000000000000e+00
    X0000550  C0000201   1.000000000000e+00
    X0000550  C0000247   1.000000000000e+00
    X0000550  OBJ        1.000000000000e+00
    X0000551  C0000201   1.000000000000e+00
    X0000551  C0000251   1.000000000000e+00
    X0000551  OBJ        1.000000000000e+00
    X0000552  C0000201   1.000000000000e+00
    X0000552  C0000255   1.000000000000e+00
    X0000552  OBJ        1.000000000000e+00
    X0000553  C0000201   1.000000000000e+00
    X0000553  C0000259   1.000000000000e+00
    X0000553  OBJ        1.000000000000e+00
    X0000554  C0000201   1.000000000000e+00
    X0000554  C0000263   1.000000000000e+00
    X0000554  OBJ        1.000000000000e+00
    X0000555  C0000201   1.000000000000e+00
    X0000555  C0000267   1.000000000000e+00
    X0000555  OBJ        1.000000000000e+00
    X0000556  C0000201   1.000000000000e+00
    X0000556  C0000271   1.000000000000e+00
    X0000556  OBJ        1.000000000000e+00
    X0000557  C0000201   1.000000000000e+00
    X0000557  C0000275   1.000000000000e+00
    X0000557  OBJ        1.000000000000e+00
    X0000558  C0000201   1.000000000000e+00
    X0000558  C0000279   1.000000000000e+00
    X0000558  OBJ        1.000000000000e+00
    X0000559  C0000201   1.000000000000e+00
    X0000559  C0000281   1.000000000000e+00
    X0000559  OBJ        1.000000000000e+00
    X0000560  C0000181   1.000000000000e+00
    X0000560  C0000201   1.000000000000e+00
    X0000560  OBJ        1.000000000000e+00
    X0000561  C0000186   1.000000000000e+00
    X0000561  C0000201   1.000000000000e+00
    X0000561  OBJ        1.000000000000e+00
    X0000562  C0000190   1.000000000000e+00
    X0000562  C0000201   1.000000000000e+00
    X0000562  OBJ        1.000000000000e+00
    X0000563  C0000194   1.000000000000e+00
    X0000563  C0000201   1.000000000000e+00
    X0000563  OBJ        1.000000000000e+00
    X0000564  C0000197   1.000000000000e+00
    X0000564  C0000201   1.000000000000e+00
    X0000564  OBJ        1.000000000000e+00
    X0000565  C0000149   1.000000000000e+00
    X0000565  C0000201   1.000000000000e+00
    X0000565  OBJ        1.000000000000e+00
    X0000566  C0000153   1.000000000000e+00
    X0000566  C0000201   1.000000000000e+00
    X0000566  OBJ        1.000000000000e+00
    X0000567  C0000157   1.000000000000e+00
    X0000567  C0000201   1.000000000000e+00
    X0000567  OBJ        1.000000000000e+00
    X0000568  C0000161   1.000000000000e+00
    X0000568  C0000201   1.000000000000e+00
    X0000568  OBJ        1.000000000000e+00
    X0000569  C0000173   1.000000000000e+00
    X0000569  C0000201   1.000000000000e+00
    X0000569  OBJ        1.000000000000e+00
    X0000570  C0000071   1.000000000000e+00
    X0000570  C0000201   1.000000000000e+00
    X0000570  OBJ        1.000000000000e+00
    X0000571  C0000073   1.000000000000e+00
    X0000571  C0000201   1.000000000000e+00
    X0000571  OBJ        1.000000000000e+00
    X0000572  C0000203   1.000000000000e+00
    X0000572  C0000209   1.000000000000e+00
    X0000572  OBJ        1.000000000000e+00
    X0000573  C0000203   1.000000000000e+00
    X0000573  C0000213   1.000000000000e+00
    X0000573  OBJ        1.000000000000e+00
    X0000574  C0000203   1.000000000000e+00
    X0000574  C0000217   1.000000000000e+00
    X0000574  OBJ        1.000000000000e+00
    X0000575  C0000203   1.000000000000e+00
    X0000575  C0000221   1.000000000000e+00
    X0000575  OBJ        1.000000000000e+00
    X0000576  C0000203   1.000000000000e+00
    X0000576  C0000225   1.000000000000e+00
    X0000576  OBJ        1.000000000000e+00
    X0000577  C0000203   1.000000000000e+00
    X0000577  C0000229   1.000000000000e+00
    X0000577  OBJ        1.000000000000e+00
    X0000578  C0000203   1.000000000000e+00
    X0000578  C0000233   1.000000000000e+00
    X0000578  OBJ        1.000000000000e+00
    X0000579  C0000203   1.000000000000e+00
    X0000579  C0000237   1.000000000000e+00
    X0000579  OBJ        1.000000000000e+00
    X0000580  C0000203   1.000000000000e+00
    X0000580  C0000241   1.000000000000e+00
    X0000580  OBJ        1.000000000000e+00
    X0000581  C0000203   1.000000000000e+00
    X0000581  C0000245   1.000000000000e+00
    X0000581  OBJ        1.000000000000e+00
    X0000582  C0000203   1.000000000000e+00
    X0000582  C0000249   1.000000000000e+00
    X0000582  OBJ        1.000000000000e+00
    X0000583  C0000203   1.000000000000e+00
    X0000583  C0000253   1.000000000000e+00
    X0000583  OBJ        1.000000000000e+00
    X0000584  C0000203   1.000000000000e+00
    X0000584  C0000257   1.000000000000e+00
    X0000584  OBJ        1.000000000000e+00
    X0000585  C0000203   1.000000000000e+00
    X0000585  C0000261   1.000000000000e+00
    X0000585  OBJ        1.000000000000e+00
    X0000586  C0000203   1.000000000000e+00
    X0000586  C0000269   1.000000000000e+00
    X0000586  OBJ        1.000000000000e+00
    X0000587  C0000203   1.000000000000e+00
    X0000587  C0000277   1.000000000000e+00
    X0000587  OBJ        1.000000000000e+00
    X0000588  C0000203   1.000000000000e+00
    X0000588  C0000280   1.000000000000e+00
    X0000588  OBJ        1.000000000000e+00
    X0000589  C0000203   1.000000000000e+00
    X0000589  C0000282   1.000000000000e+00
    X0000589  OBJ        1.000000000000e+00
    X0000590  C0000203   1.000000000000e+00
    X0000590  C0000205   1.000000000000e+00
    X0000590  OBJ        1.000000000000e+00
    X0000591  C0000203   1.000000000000e+00
    X0000591  C0000265   1.000000000000e+00
    X0000591  OBJ        1.000000000000e+00
    X0000592  C0000203   1.000000000000e+00
    X0000592  C0000273   1.000000000000e+00
    X0000592  OBJ        1.000000000000e+00
    X0000593  C0000206   1.000000000000e+00
    X0000593  C0000213   1.000000000000e+00
    X0000593  OBJ        1.000000000000e+00
    X0000594  C0000206   1.000000000000e+00
    X0000594  C0000217   1.000000000000e+00
    X0000594  OBJ        1.000000000000e+00
    X0000595  C0000206   1.000000000000e+00
    X0000595  C0000221   1.000000000000e+00
    X0000595  OBJ        1.000000000000e+00
    X0000596  C0000206   1.000000000000e+00
    X0000596  C0000225   1.000000000000e+00
    X0000596  OBJ        1.000000000000e+00
    X0000597  C0000206   1.000000000000e+00
    X0000597  C0000229   1.000000000000e+00
    X0000597  OBJ        1.000000000000e+00
    X0000598  C0000206   1.000000000000e+00
    X0000598  C0000233   1.000000000000e+00
    X0000598  OBJ        1.000000000000e+00
    X0000599  C0000206   1.000000000000e+00
    X0000599  C0000237   1.000000000000e+00
    X0000599  OBJ        1.000000000000e+00
    X0000600  C0000206   1.000000000000e+00
    X0000600  C0000241   1.000000000000e+00
    X0000600  OBJ        1.000000000000e+00
    X0000601  C0000206   1.000000000000e+00
    X0000601  C0000245   1.000000000000e+00
    X0000601  OBJ        1.000000000000e+00
    X0000602  C0000206   1.000000000000e+00
    X0000602  C0000249   1.000000000000e+00
    X0000602  OBJ        1.000000000000e+00
    X0000603  C0000206   1.000000000000e+00
    X0000603  C0000253   1.000000000000e+00
    X0000603  OBJ        1.000000000000e+00
    X0000604  C0000206   1.000000000000e+00
    X0000604  C0000257   1.000000000000e+00
    X0000604  OBJ        1.000000000000e+00
    X0000605  C0000206   1.000000000000e+00
    X0000605  C0000261   1.000000000000e+00
    X0000605  OBJ        1.000000000000e+00
    X0000606  C0000206   1.000000000000e+00
    X0000606  C0000269   1.000000000000e+00
    X0000606  OBJ        1.000000000000e+00
    X0000607  C0000206   1.000000000000e+00
    X0000607  C0000277   1.000000000000e+00
    X0000607  OBJ        1.000000000000e+00
    X0000608  C0000206   1.000000000000e+00
    X0000608  C0000280   1.000000000000e+00
    X0000608  OBJ        1.000000000000e+00
    X0000609  C0000206   1.000000000000e+00
    X0000609  C0000282   1.000000000000e+00
    X0000609  OBJ        1.000000000000e+00
    X0000610  C0000206   1.000000000000e+00
    X0000610  C0000265   1.000000000000e+00
    X0000610  OBJ        1.000000000000e+00
    X0000611  C0000206   1.000000000000e+00
    X0000611  C0000273   1.000000000000e+00
    X0000611  OBJ        1.000000000000e+00
    X0000612  C0000165   1.000000000000e+00
    X0000612  C0000208   1.000000000000e+00
    X0000612  OBJ        1.000000000000e+00
    X0000613  C0000169   1.000000000000e+00
    X0000613  C0000208   1.000000000000e+00
    X0000613  OBJ        1.000000000000e+00
    X0000614  C0000177   1.000000000000e+00
    X0000614  C0000208   1.000000000000e+00
    X0000614  OBJ        1.000000000000e+00
    X0000615  C0000208   1.000000000000e+00
    X0000615  C0000223   1.000000000000e+00
    X0000615  OBJ        1.000000000000e+00
    X0000616  C0000208   1.000000000000e+00
    X0000616  C0000219   1.000000000000e+00
    X0000616  OBJ        1.000000000000e+00
    X0000617  C0000208   1.000000000000e+00
    X0000617  C0000227   1.000000000000e+00
    X0000617  OBJ        1.000000000000e+00
    X0000618  C0000208   1.000000000000e+00
    X0000618  C0000231   1.000000000000e+00
    X0000618  OBJ        1.000000000000e+00
    X0000619  C0000208   1.000000000000e+00
    X0000619  C0000235   1.000000000000e+00
    X0000619  OBJ        1.000000000000e+00
    X0000620  C0000208   1.000000000000e+00
    X0000620  C0000239   1.000000000000e+00
    X0000620  OBJ        1.000000000000e+00
    X0000621  C0000208   1.000000000000e+00
    X0000621  C0000243   1.000000000000e+00
    X0000621  OBJ        1.000000000000e+00
    X0000622  C0000208   1.000000000000e+00
    X0000622  C0000247   1.000000000000e+00
    X0000622  OBJ        1.000000000000e+00
    X0000623  C0000208   1.000000000000e+00
    X0000623  C0000251   1.000000000000e+00
    X0000623  OBJ        1.000000000000e+00
    X0000624  C0000208   1.000000000000e+00
    X0000624  C0000255   1.000000000000e+00
    X0000624  OBJ        1.000000000000e+00
    X0000625  C0000208   1.000000000000e+00
    X0000625  C0000259   1.000000000000e+00
    X0000625  OBJ        1.000000000000e+00
    X0000626  C0000208   1.000000000000e+00
    X0000626  C0000263   1.000000000000e+00
    X0000626  OBJ        1.000000000000e+00
    X0000627  C0000208   1.000000000000e+00
    X0000627  C0000267   1.000000000000e+00
    X0000627  OBJ        1.000000000000e+00
    X0000628  C0000208   1.000000000000e+00
    X0000628  C0000271   1.000000000000e+00
    X0000628  OBJ        1.000000000000e+00
    X0000629  C0000208   1.000000000000e+00
    X0000629  C0000275   1.000000000000e+00
    X0000629  OBJ        1.000000000000e+00
    X0000630  C0000208   1.000000000000e+00
    X0000630  C0000279   1.000000000000e+00
    X0000630  OBJ        1.000000000000e+00
    X0000631  C0000208   1.000000000000e+00
    X0000631  C0000281   1.000000000000e+00
    X0000631  OBJ        1.000000000000e+00
    X0000632  C0000181   1.000000000000e+00
    X0000632  C0000208   1.000000000000e+00
    X0000632  OBJ        1.000000000000e+00
    X0000633  C0000186   1.000000000000e+00
    X0000633  C0000208   1.000000000000e+00
    X0000633  OBJ        1.000000000000e+00
    X0000634  C0000190   1.000000000000e+00
    X0000634  C0000208   1.000000000000e+00
    X0000634  OBJ        1.000000000000e+00
    X0000635  C0000194   1.000000000000e+00
    X0000635  C0000208   1.000000000000e+00
    X0000635  OBJ        1.000000000000e+00
    X0000636  C0000197   1.000000000000e+00
    X0000636  C0000208   1.000000000000e+00
    X0000636  OBJ        1.000000000000e+00
    X0000637  C0000157   1.000000000000e+00
    X0000637  C0000208   1.000000000000e+00
    X0000637  OBJ        1.000000000000e+00
    X0000638  C0000161   1.000000000000e+00
    X0000638  C0000208   1.000000000000e+00
    X0000638  OBJ        1.000000000000e+00
    X0000639  C0000173   1.000000000000e+00
    X0000639  C0000208   1.000000000000e+00
    X0000639  OBJ        1.000000000000e+00
    X0000640  C0000222   1.000000000000e+00
    X0000640  C0000229   1.000000000000e+00
    X0000640  OBJ        1.000000000000e+00
    X0000641  C0000222   1.000000000000e+00
    X0000641  C0000233   1.000000000000e+00
    X0000641  OBJ        1.000000000000e+00
    X0000642  C0000222   1.000000000000e+00
    X0000642  C0000237   1.000000000000e+00
    X0000642  OBJ        1.000000000000e+00
    X0000643  C0000222   1.000000000000e+00
    X0000643  C0000241   1.000000000000e+00
    X0000643  OBJ        1.000000000000e+00
    X0000644  C0000222   1.000000000000e+00
    X0000644  C0000245   1.000000000000e+00
    X0000644  OBJ        1.000000000000e+00
    X0000645  C0000222   1.000000000000e+00
    X0000645  C0000249   1.000000000000e+00
    X0000645  OBJ        1.000000000000e+00
    X0000646  C0000222   1.000000000000e+00
    X0000646  C0000253   1.000000000000e+00
    X0000646  OBJ        1.000000000000e+00
    X0000647  C0000222   1.000000000000e+00
    X0000647  C0000257   1.000000000000e+00
    X0000647  OBJ        1.000000000000e+00
    X0000648  C0000222   1.000000000000e+00
    X0000648  C0000261   1.000000000000e+00
    X0000648  OBJ        1.000000000000e+00
    X0000649  C0000222   1.000000000000e+00
    X0000649  C0000269   1.000000000000e+00
    X0000649  OBJ        1.000000000000e+00
    X0000650  C0000222   1.000000000000e+00
    X0000650  C0000277   1.000000000000e+00
    X0000650  OBJ        1.000000000000e+00
    X0000651  C0000222   1.000000000000e+00
    X0000651  C0000280   1.000000000000e+00
    X0000651  OBJ        1.000000000000e+00
    X0000652  C0000222   1.000000000000e+00
    X0000652  C0000282   1.000000000000e+00
    X0000652  OBJ        1.000000000000e+00
    X0000653  C0000222   1.000000000000e+00
    X0000653  C0000265   1.000000000000e+00
    X0000653  OBJ        1.000000000000e+00
    X0000654  C0000222   1.000000000000e+00
    X0000654  C0000273   1.000000000000e+00
    X0000654  OBJ        1.000000000000e+00
    X0000655  C0000165   1.000000000000e+00
    X0000655  C0000212   1.000000000000e+00
    X0000655  OBJ        1.000000000000e+00
    X0000656  C0000169   1.000000000000e+00
    X0000656  C0000212   1.000000000000e+00
    X0000656  OBJ        1.000000000000e+00
    X0000657  C0000177   1.000000000000e+00
    X0000657  C0000212   1.000000000000e+00
    X0000657  OBJ        1.000000000000e+00
    X0000658  C0000212   1.000000000000e+00
    X0000658  C0000223   1.000000000000e+00
    X0000658  OBJ        1.000000000000e+00
    X0000659  C0000212   1.000000000000e+00
    X0000659  C0000227   1.000000000000e+00
    X0000659  OBJ        1.000000000000e+00
    X0000660  C0000212   1.000000000000e+00
    X0000660  C0000231   1.000000000000e+00
    X0000660  OBJ        1.000000000000e+00
    X0000661  C0000212   1.000000000000e+00
    X0000661  C0000235   1.000000000000e+00
    X0000661  OBJ        1.000000000000e+00
    X0000662  C0000212   1.000000000000e+00
    X0000662  C0000239   1.000000000000e+00
    X0000662  OBJ        1.000000000000e+00
    X0000663  C0000212   1.000000000000e+00
    X0000663  C0000243   1.000000000000e+00
    X0000663  OBJ        1.000000000000e+00
    X0000664  C0000212   1.000000000000e+00
    X0000664  C0000247   1.000000000000e+00
    X0000664  OBJ        1.000000000000e+00
    X0000665  C0000212   1.000000000000e+00
    X0000665  C0000251   1.000000000000e+00
    X0000665  OBJ        1.000000000000e+00
    X0000666  C0000212   1.000000000000e+00
    X0000666  C0000255   1.000000000000e+00
    X0000666  OBJ        1.000000000000e+00
    X0000667  C0000212   1.000000000000e+00
    X0000667  C0000259   1.000000000000e+00
    X0000667  OBJ        1.000000000000e+00
    X0000668  C0000212   1.000000000000e+00
    X0000668  C0000263   1.000000000000e+00
    X0000668  OBJ        1.000000000000e+00
    X0000669  C0000212   1.000000000000e+00
    X0000669  C0000267   1.000000000000e+00
    X0000669  OBJ        1.000000000000e+00
    X0000670  C0000212   1.000000000000e+00
    X0000670  C0000271   1.000000000000e+00
    X0000670  OBJ        1.000000000000e+00
    X0000671  C0000212   1.000000000000e+00
    X0000671  C0000275   1.000000000000e+00
    X0000671  OBJ        1.000000000000e+00
    X0000672  C0000212   1.000000000000e+00
    X0000672  C0000279   1.000000000000e+00
    X0000672  OBJ        1.000000000000e+00
    X0000673  C0000212   1.000000000000e+00
    X0000673  C0000281   1.000000000000e+00
    X0000673  OBJ        1.000000000000e+00
    X0000674  C0000181   1.000000000000e+00
    X0000674  C0000212   1.000000000000e+00
    X0000674  OBJ        1.000000000000e+00
    X0000675  C0000186   1.000000000000e+00
    X0000675  C0000212   1.000000000000e+00
    X0000675  OBJ        1.000000000000e+00
    X0000676  C0000190   1.000000000000e+00
    X0000676  C0000212   1.000000000000e+00
    X0000676  OBJ        1.000000000000e+00
    X0000677  C0000194   1.000000000000e+00
    X0000677  C0000212   1.000000000000e+00
    X0000677  OBJ        1.000000000000e+00
    X0000678  C0000197   1.000000000000e+00
    X0000678  C0000212   1.000000000000e+00
    X0000678  OBJ        1.000000000000e+00
    X0000679  C0000157   1.000000000000e+00
    X0000679  C0000212   1.000000000000e+00
    X0000679  OBJ        1.000000000000e+00
    X0000680  C0000161   1.000000000000e+00
    X0000680  C0000212   1.000000000000e+00
    X0000680  OBJ        1.000000000000e+00
    X0000681  C0000173   1.000000000000e+00
    X0000681  C0000212   1.000000000000e+00
    X0000681  OBJ        1.000000000000e+00
    X0000682  C0000214   1.000000000000e+00
    X0000682  C0000221   1.000000000000e+00
    X0000682  OBJ        1.000000000000e+00
    X0000683  C0000214   1.000000000000e+00
    X0000683  C0000225   1.000000000000e+00
    X0000683  OBJ        1.000000000000e+00
    X0000684  C0000214   1.000000000000e+00
    X0000684  C0000229   1.000000000000e+00
    X0000684  OBJ        1.000000000000e+00
    X0000685  C0000214   1.000000000000e+00
    X0000685  C0000233   1.000000000000e+00
    X0000685  OBJ        1.000000000000e+00
    X0000686  C0000214   1.000000000000e+00
    X0000686  C0000237   1.000000000000e+00
    X0000686  OBJ        1.000000000000e+00
    X0000687  C0000214   1.000000000000e+00
    X0000687  C0000241   1.000000000000e+00
    X0000687  OBJ        1.000000000000e+00
    X0000688  C0000214   1.000000000000e+00
    X0000688  C0000245   1.000000000000e+00
    X0000688  OBJ        1.000000000000e+00
    X0000689  C0000214   1.000000000000e+00
    X0000689  C0000249   1.000000000000e+00
    X0000689  OBJ        1.000000000000e+00
    X0000690  C0000214   1.000000000000e+00
    X0000690  C0000253   1.000000000000e+00
    X0000690  OBJ        1.000000000000e+00
    X0000691  C0000214   1.000000000000e+00
    X0000691  C0000257   1.000000000000e+00
    X0000691  OBJ        1.000000000000e+00
    X0000692  C0000214   1.000000000000e+00
    X0000692  C0000261   1.000000000000e+00
    X0000692  OBJ        1.000000000000e+00
    X0000693  C0000214   1.000000000000e+00
    X0000693  C0000269   1.000000000000e+00
    X0000693  OBJ        1.000000000000e+00
    X0000694  C0000214   1.000000000000e+00
    X0000694  C0000277   1.000000000000e+00
    X0000694  OBJ        1.000000000000e+00
    X0000695  C0000214   1.000000000000e+00
    X0000695  C0000280   1.000000000000e+00
    X0000695  OBJ        1.000000000000e+00
    X0000696  C0000214   1.000000000000e+00
    X0000696  C0000282   1.000000000000e+00
    X0000696  OBJ        1.000000000000e+00
    X0000697  C0000214   1.000000000000e+00
    X0000697  C0000265   1.000000000000e+00
    X0000697  OBJ        1.000000000000e+00
    X0000698  C0000214   1.000000000000e+00
    X0000698  C0000273   1.000000000000e+00
    X0000698  OBJ        1.000000000000e+00
    X0000699  C0000165   1.000000000000e+00
    X0000699  C0000216   1.000000000000e+00
    X0000699  OBJ        1.000000000000e+00
    X0000700  C0000169   1.000000000000e+00
    X0000700  C0000216   1.000000000000e+00
    X0000700  OBJ        1.000000000000e+00
    X0000701  C0000177   1.000000000000e+00
    X0000701  C0000216   1.000000000000e+00
    X0000701  OBJ        1.000000000000e+00
    X0000702  C0000216   1.000000000000e+00
    X0000702  C0000227   1.000000000000e+00
    X0000702  OBJ        1.000000000000e+00
    X0000703  C0000216   1.000000000000e+00
    X0000703  C0000231   1.000000000000e+00
    X0000703  OBJ        1.000000000000e+00
    X0000704  C0000216   1.000000000000e+00
    X0000704  C0000235   1.000000000000e+00
    X0000704  OBJ        1.000000000000e+00
    X0000705  C0000216   1.000000000000e+00
    X0000705  C0000239   1.000000000000e+00
    X0000705  OBJ        1.000000000000e+00
    X0000706  C0000216   1.000000000000e+00
    X0000706  C0000243   1.000000000000e+00
    X0000706  OBJ        1.000000000000e+00
    X0000707  C0000216   1.000000000000e+00
    X0000707  C0000247   1.000000000000e+00
    X0000707  OBJ        1.000000000000e+00
    X0000708  C0000216   1.000000000000e+00
    X0000708  C0000251   1.000000000000e+00
    X0000708  OBJ        1.000000000000e+00
    X0000709  C0000216   1.000000000000e+00
    X0000709  C0000255   1.000000000000e+00
    X0000709  OBJ        1.000000000000e+00
    X0000710  C0000216   1.000000000000e+00
    X0000710  C0000259   1.000000000000e+00
    X0000710  OBJ        1.000000000000e+00
    X0000711  C0000216   1.000000000000e+00
    X0000711  C0000263   1.000000000000e+00
    X0000711  OBJ        1.000000000000e+00
    X0000712  C0000216   1.000000000000e+00
    X0000712  C0000267   1.000000000000e+00
    X0000712  OBJ        1.000000000000e+00
    X0000713  C0000216   1.000000000000e+00
    X0000713  C0000271   1.000000000000e+00
    X0000713  OBJ        1.000000000000e+00
    X0000714  C0000216   1.000000000000e+00
    X0000714  C0000275   1.000000000000e+00
    X0000714  OBJ        1.000000000000e+00
    X0000715  C0000216   1.000000000000e+00
    X0000715  C0000279   1.000000000000e+00
    X0000715  OBJ        1.000000000000e+00
    X0000716  C0000216   1.000000000000e+00
    X0000716  C0000281   1.000000000000e+00
    X0000716  OBJ        1.000000000000e+00
    X0000717  C0000181   1.000000000000e+00
    X0000717  C0000216   1.000000000000e+00
    X0000717  OBJ        1.000000000000e+00
    X0000718  C0000186   1.000000000000e+00
    X0000718  C0000216   1.000000000000e+00
    X0000718  OBJ        1.000000000000e+00
    X0000719  C0000190   1.000000000000e+00
    X0000719  C0000216   1.000000000000e+00
    X0000719  OBJ        1.000000000000e+00
    X0000720  C0000194   1.000000000000e+00
    X0000720  C0000216   1.000000000000e+00
    X0000720  OBJ        1.000000000000e+00
    X0000721  C0000197   1.000000000000e+00
    X0000721  C0000216   1.000000000000e+00
    X0000721  OBJ        1.000000000000e+00
    X0000722  C0000161   1.000000000000e+00
    X0000722  C0000216   1.000000000000e+00
    X0000722  OBJ        1.000000000000e+00
    X0000723  C0000173   1.000000000000e+00
    X0000723  C0000216   1.000000000000e+00
    X0000723  OBJ        1.000000000000e+00
    X0000724  C0000218   1.000000000000e+00
    X0000724  C0000225   1.000000000000e+00
    X0000724  OBJ        1.000000000000e+00
    X0000725  C0000218   1.000000000000e+00
    X0000725  C0000229   1.000000000000e+00
    X0000725  OBJ        1.000000000000e+00
    X0000726  C0000218   1.000000000000e+00
    X0000726  C0000233   1.000000000000e+00
    X0000726  OBJ        1.000000000000e+00
    X0000727  C0000218   1.000000000000e+00
    X0000727  C0000237   1.000000000000e+00
    X0000727  OBJ        1.000000000000e+00
    X0000728  C0000218   1.000000000000e+00
    X0000728  C0000241   1.000000000000e+00
    X0000728  OBJ        1.000000000000e+00
    X0000729  C0000218   1.000000000000e+00
    X0000729  C0000245   1.000000000000e+00
    X0000729  OBJ        1.000000000000e+00
    X0000730  C0000218   1.000000000000e+00
    X0000730  C0000249   1.000000000000e+00
    X0000730  OBJ        1.000000000000e+00
    X0000731  C0000218   1.000000000000e+00
    X0000731  C0000253   1.000000000000e+00
    X0000731  OBJ        1.000000000000e+00
    X0000732  C0000218   1.000000000000e+00
    X0000732  C0000257   1.000000000000e+00
    X0000732  OBJ        1.000000000000e+00
    X0000733  C0000218   1.000000000000e+00
    X0000733  C0000261   1.000000000000e+00
    X0000733  OBJ        1.000000000000e+00
    X0000734  C0000218   1.000000000000e+00
    X0000734  C0000269   1.000000000000e+00
    X0000734  OBJ        1.000000000000e+00
    X0000735  C0000218   1.000000000000e+00
    X0000735  C0000277   1.000000000000e+00
    X0000735  OBJ        1.000000000000e+00
    X0000736  C0000218   1.000000000000e+00
    X0000736  C0000280   1.000000000000e+00
    X0000736  OBJ        1.000000000000e+00
    X0000737  C0000218   1.000000000000e+00
    X0000737  C0000282   1.000000000000e+00
    X0000737  OBJ        1.000000000000e+00
    X0000738  C0000218   1.000000000000e+00
    X0000738  C0000265   1.000000000000e+00
    X0000738  OBJ        1.000000000000e+00
    X0000739  C0000218   1.000000000000e+00
    X0000739  C0000273   1.000000000000e+00
    X0000739  OBJ        1.000000000000e+00
    X0000740  C0000165   1.000000000000e+00
    X0000740  C0000220   1.000000000000e+00
    X0000740  OBJ        1.000000000000e+00
    X0000741  C0000169   1.000000000000e+00
    X0000741  C0000220   1.000000000000e+00
    X0000741  OBJ        1.000000000000e+00
    X0000742  C0000177   1.000000000000e+00
    X0000742  C0000220   1.000000000000e+00
    X0000742  OBJ        1.000000000000e+00
    X0000743  C0000220   1.000000000000e+00
    X0000743  C0000227   1.000000000000e+00
    X0000743  OBJ        1.000000000000e+00
    X0000744  C0000220   1.000000000000e+00
    X0000744  C0000231   1.000000000000e+00
    X0000744  OBJ        1.000000000000e+00
    X0000745  C0000220   1.000000000000e+00
    X0000745  C0000235   1.000000000000e+00
    X0000745  OBJ        1.000000000000e+00
    X0000746  C0000220   1.000000000000e+00
    X0000746  C0000239   1.000000000000e+00
    X0000746  OBJ        1.000000000000e+00
    X0000747  C0000220   1.000000000000e+00
    X0000747  C0000243   1.000000000000e+00
    X0000747  OBJ        1.000000000000e+00
    X0000748  C0000220   1.000000000000e+00
    X0000748  C0000247   1.000000000000e+00
    X0000748  OBJ        1.000000000000e+00
    X0000749  C0000220   1.000000000000e+00
    X0000749  C0000251   1.000000000000e+00
    X0000749  OBJ        1.000000000000e+00
    X0000750  C0000220   1.000000000000e+00
    X0000750  C0000255   1.000000000000e+00
    X0000750  OBJ        1.000000000000e+00
    X0000751  C0000220   1.000000000000e+00
    X0000751  C0000259   1.000000000000e+00
    X0000751  OBJ        1.000000000000e+00
    X0000752  C0000220   1.000000000000e+00
    X0000752  C0000263   1.000000000000e+00
    X0000752  OBJ        1.000000000000e+00
    X0000753  C0000220   1.000000000000e+00
    X0000753  C0000267   1.000000000000e+00
    X0000753  OBJ        1.000000000000e+00
    X0000754  C0000220   1.000000000000e+00
    X0000754  C0000271   1.000000000000e+00
    X0000754  OBJ        1.000000000000e+00
    X0000755  C0000220   1.000000000000e+00
    X0000755  C0000275   1.000000000000e+00
    X0000755  OBJ        1.000000000000e+00
    X0000756  C0000220   1.000000000000e+00
    X0000756  C0000279   1.000000000000e+00
    X0000756  OBJ        1.000000000000e+00
    X0000757  C0000220   1.000000000000e+00
    X0000757  C0000281   1.000000000000e+00
    X0000757  OBJ        1.000000000000e+00
    X0000758  C0000181   1.000000000000e+00
    X0000758  C0000220   1.000000000000e+00
    X0000758  OBJ        1.000000000000e+00
    X0000759  C0000186   1.000000000000e+00
    X0000759  C0000220   1.000000000000e+00
    X0000759  OBJ        1.000000000000e+00
    X0000760  C0000190   1.000000000000e+00
    X0000760  C0000220   1.000000000000e+00
    X0000760  OBJ        1.000000000000e+00
    X0000761  C0000194   1.000000000000e+00
    X0000761  C0000220   1.000000000000e+00
    X0000761  OBJ        1.000000000000e+00
    X0000762  C0000197   1.000000000000e+00
    X0000762  C0000220   1.000000000000e+00
    X0000762  OBJ        1.000000000000e+00
    X0000763  C0000161   1.000000000000e+00
    X0000763  C0000220   1.000000000000e+00
    X0000763  OBJ        1.000000000000e+00
    X0000764  C0000173   1.000000000000e+00
    X0000764  C0000220   1.000000000000e+00
    X0000764  OBJ        1.000000000000e+00
    X0000765  C0000210   1.000000000000e+00
    X0000765  C0000217   1.000000000000e+00
    X0000765  OBJ        1.000000000000e+00
    X0000766  C0000210   1.000000000000e+00
    X0000766  C0000221   1.000000000000e+00
    X0000766  OBJ        1.000000000000e+00
    X0000767  C0000210   1.000000000000e+00
    X0000767  C0000225   1.000000000000e+00
    X0000767  OBJ        1.000000000000e+00
    X0000768  C0000210   1.000000000000e+00
    X0000768  C0000229   1.000000000000e+00
    X0000768  OBJ        1.000000000000e+00
    X0000769  C0000210   1.000000000000e+00
    X0000769  C0000233   1.000000000000e+00
    X0000769  OBJ        1.000000000000e+00
    X0000770  C0000210   1.000000000000e+00
    X0000770  C0000237   1.000000000000e+00
    X0000770  OBJ        1.000000000000e+00
    X0000771  C0000210   1.000000000000e+00
    X0000771  C0000241   1.000000000000e+00
    X0000771  OBJ        1.000000000000e+00
    X0000772  C0000210   1.000000000000e+00
    X0000772  C0000245   1.000000000000e+00
    X0000772  OBJ        1.000000000000e+00
    X0000773  C0000210   1.000000000000e+00
    X0000773  C0000249   1.000000000000e+00
    X0000773  OBJ        1.000000000000e+00
    X0000774  C0000210   1.000000000000e+00
    X0000774  C0000253   1.000000000000e+00
    X0000774  OBJ        1.000000000000e+00
    X0000775  C0000210   1.000000000000e+00
    X0000775  C0000257   1.000000000000e+00
    X0000775  OBJ        1.000000000000e+00
    X0000776  C0000210   1.000000000000e+00
    X0000776  C0000261   1.000000000000e+00
    X0000776  OBJ        1.000000000000e+00
    X0000777  C0000210   1.000000000000e+00
    X0000777  C0000269   1.000000000000e+00
    X0000777  OBJ        1.000000000000e+00
    X0000778  C0000210   1.000000000000e+00
    X0000778  C0000277   1.000000000000e+00
    X0000778  OBJ        1.000000000000e+00
    X0000779  C0000210   1.000000000000e+00
    X0000779  C0000280   1.000000000000e+00
    X0000779  OBJ        1.000000000000e+00
    X0000780  C0000210   1.000000000000e+00
    X0000780  C0000282   1.000000000000e+00
    X0000780  OBJ        1.000000000000e+00
    X0000781  C0000210   1.000000000000e+00
    X0000781  C0000265   1.000000000000e+00
    X0000781  OBJ        1.000000000000e+00
    X0000782  C0000210   1.000000000000e+00
    X0000782  C0000273   1.000000000000e+00
    X0000782  OBJ        1.000000000000e+00
    X0000783  C0000165   1.000000000000e+00
    X0000783  C0000224   1.000000000000e+00
    X0000783  OBJ        1.000000000000e+00
    X0000784  C0000169   1.000000000000e+00
    X0000784  C0000224   1.000000000000e+00
    X0000784  OBJ        1.000000000000e+00
    X0000785  C0000177   1.000000000000e+00
    X0000785  C0000224   1.000000000000e+00
    X0000785  OBJ        1.000000000000e+00
    X0000786  C0000224   1.000000000000e+00
    X0000786  C0000231   1.000000000000e+00
    X0000786  OBJ        1.000000000000e+00
    X0000787  C0000224   1.000000000000e+00
    X0000787  C0000235   1.000000000000e+00
    X0000787  OBJ        1.000000000000e+00
    X0000788  C0000224   1.000000000000e+00
    X0000788  C0000239   1.000000000000e+00
    X0000788  OBJ        1.000000000000e+00
    X0000789  C0000224   1.000000000000e+00
    X0000789  C0000243   1.000000000000e+00
    X0000789  OBJ        1.000000000000e+00
    X0000790  C0000224   1.000000000000e+00
    X0000790  C0000247   1.000000000000e+00
    X0000790  OBJ        1.000000000000e+00
    X0000791  C0000224   1.000000000000e+00
    X0000791  C0000251   1.000000000000e+00
    X0000791  OBJ        1.000000000000e+00
    X0000792  C0000224   1.000000000000e+00
    X0000792  C0000255   1.000000000000e+00
    X0000792  OBJ        1.000000000000e+00
    X0000793  C0000224   1.000000000000e+00
    X0000793  C0000259   1.000000000000e+00
    X0000793  OBJ        1.000000000000e+00
    X0000794  C0000224   1.000000000000e+00
    X0000794  C0000263   1.000000000000e+00
    X0000794  OBJ        1.000000000000e+00
    X0000795  C0000224   1.000000000000e+00
    X0000795  C0000267   1.000000000000e+00
    X0000795  OBJ        1.000000000000e+00
    X0000796  C0000224   1.000000000000e+00
    X0000796  C0000271   1.000000000000e+00
    X0000796  OBJ        1.000000000000e+00
    X0000797  C0000224   1.000000000000e+00
    X0000797  C0000275   1.000000000000e+00
    X0000797  OBJ        1.000000000000e+00
    X0000798  C0000224   1.000000000000e+00
    X0000798  C0000279   1.000000000000e+00
    X0000798  OBJ        1.000000000000e+00
    X0000799  C0000224   1.000000000000e+00
    X0000799  C0000281   1.000000000000e+00
    X0000799  OBJ        1.000000000000e+00
    X0000800  C0000181   1.000000000000e+00
    X0000800  C0000224   1.000000000000e+00
    X0000800  OBJ        1.000000000000e+00
    X0000801  C0000186   1.000000000000e+00
    X0000801  C0000224   1.000000000000e+00
    X0000801  OBJ        1.000000000000e+00
    X0000802  C0000190   1.000000000000e+00
    X0000802  C0000224   1.000000000000e+00
    X0000802  OBJ        1.000000000000e+00
    X0000803  C0000194   1.000000000000e+00
    X0000803  C0000224   1.000000000000e+00
    X0000803  OBJ        1.000000000000e+00
    X0000804  C0000197   1.000000000000e+00
    X0000804  C0000224   1.000000000000e+00
    X0000804  OBJ        1.000000000000e+00
    X0000805  C0000173   1.000000000000e+00
    X0000805  C0000224   1.000000000000e+00
    X0000805  OBJ        1.000000000000e+00
    X0000806  C0000226   1.000000000000e+00
    X0000806  C0000233   1.000000000000e+00
    X0000806  OBJ        1.000000000000e+00
    X0000807  C0000226   1.000000000000e+00
    X0000807  C0000237   1.000000000000e+00
    X0000807  OBJ        1.000000000000e+00
    X0000808  C0000226   1.000000000000e+00
    X0000808  C0000241   1.000000000000e+00
    X0000808  OBJ        1.000000000000e+00
    X0000809  C0000226   1.000000000000e+00
    X0000809  C0000245   1.000000000000e+00
    X0000809  OBJ        1.000000000000e+00
    X0000810  C0000226   1.000000000000e+00
    X0000810  C0000249   1.000000000000e+00
    X0000810  OBJ        1.000000000000e+00
    X0000811  C0000226   1.000000000000e+00
    X0000811  C0000253   1.000000000000e+00
    X0000811  OBJ        1.000000000000e+00
    X0000812  C0000226   1.000000000000e+00
    X0000812  C0000257   1.000000000000e+00
    X0000812  OBJ        1.000000000000e+00
    X0000813  C0000226   1.000000000000e+00
    X0000813  C0000261   1.000000000000e+00
    X0000813  OBJ        1.000000000000e+00
    X0000814  C0000226   1.000000000000e+00
    X0000814  C0000269   1.000000000000e+00
    X0000814  OBJ        1.000000000000e+00
    X0000815  C0000226   1.000000000000e+00
    X0000815  C0000277   1.000000000000e+00
    X0000815  OBJ        1.000000000000e+00
    X0000816  C0000226   1.000000000000e+00
    X0000816  C0000280   1.000000000000e+00
    X0000816  OBJ        1.000000000000e+00
    X0000817  C0000226   1.000000000000e+00
    X0000817  C0000282   1.000000000000e+00
    X0000817  OBJ        1.000000000000e+00
    X0000818  C0000226   1.000000000000e+00
    X0000818  C0000265   1.000000000000e+00
    X0000818  OBJ        1.000000000000e+00
    X0000819  C0000226   1.000000000000e+00
    X0000819  C0000273   1.000000000000e+00
    X0000819  OBJ        1.000000000000e+00
    X0000820  C0000169   1.000000000000e+00
    X0000820  C0000228   1.000000000000e+00
    X0000820  OBJ        1.000000000000e+00
    X0000821  C0000177   1.000000000000e+00
    X0000821  C0000228   1.000000000000e+00
    X0000821  OBJ        1.000000000000e+00
    X0000822  C0000228   1.000000000000e+00
    X0000822  C0000235   1.000000000000e+00
    X0000822  OBJ        1.000000000000e+00
    X0000823  C0000228   1.000000000000e+00
    X0000823  C0000239   1.000000000000e+00
    X0000823  OBJ        1.000000000000e+00
    X0000824  C0000228   1.000000000000e+00
    X0000824  C0000243   1.000000000000e+00
    X0000824  OBJ        1.000000000000e+00
    X0000825  C0000228   1.000000000000e+00
    X0000825  C0000247   1.000000000000e+00
    X0000825  OBJ        1.000000000000e+00
    X0000826  C0000228   1.000000000000e+00
    X0000826  C0000251   1.000000000000e+00
    X0000826  OBJ        1.000000000000e+00
    X0000827  C0000228   1.000000000000e+00
    X0000827  C0000255   1.000000000000e+00
    X0000827  OBJ        1.000000000000e+00
    X0000828  C0000228   1.000000000000e+00
    X0000828  C0000259   1.000000000000e+00
    X0000828  OBJ        1.000000000000e+00
    X0000829  C0000228   1.000000000000e+00
    X0000829  C0000263   1.000000000000e+00
    X0000829  OBJ        1.000000000000e+00
    X0000830  C0000228   1.000000000000e+00
    X0000830  C0000267   1.000000000000e+00
    X0000830  OBJ        1.000000000000e+00
    X0000831  C0000228   1.000000000000e+00
    X0000831  C0000271   1.000000000000e+00
    X0000831  OBJ        1.000000000000e+00
    X0000832  C0000228   1.000000000000e+00
    X0000832  C0000275   1.000000000000e+00
    X0000832  OBJ        1.000000000000e+00
    X0000833  C0000228   1.000000000000e+00
    X0000833  C0000279   1.000000000000e+00
    X0000833  OBJ        1.000000000000e+00
    X0000834  C0000228   1.000000000000e+00
    X0000834  C0000281   1.000000000000e+00
    X0000834  OBJ        1.000000000000e+00
    X0000835  C0000181   1.000000000000e+00
    X0000835  C0000228   1.000000000000e+00
    X0000835  OBJ        1.000000000000e+00
    X0000836  C0000186   1.000000000000e+00
    X0000836  C0000228   1.000000000000e+00
    X0000836  OBJ        1.000000000000e+00
    X0000837  C0000190   1.000000000000e+00
    X0000837  C0000228   1.000000000000e+00
    X0000837  OBJ        1.000000000000e+00
    X0000838  C0000194   1.000000000000e+00
    X0000838  C0000228   1.000000000000e+00
    X0000838  OBJ        1.000000000000e+00
    X0000839  C0000197   1.000000000000e+00
    X0000839  C0000228   1.000000000000e+00
    X0000839  OBJ        1.000000000000e+00
    X0000840  C0000173   1.000000000000e+00
    X0000840  C0000228   1.000000000000e+00
    X0000840  OBJ        1.000000000000e+00
    X0000841  C0000230   1.000000000000e+00
    X0000841  C0000237   1.000000000000e+00
    X0000841  OBJ        1.000000000000e+00
    X0000842  C0000230   1.000000000000e+00
    X0000842  C0000241   1.000000000000e+00
    X0000842  OBJ        1.000000000000e+00
    X0000843  C0000230   1.000000000000e+00
    X0000843  C0000245   1.000000000000e+00
    X0000843  OBJ        1.000000000000e+00
    X0000844  C0000230   1.000000000000e+00
    X0000844  C0000249   1.000000000000e+00
    X0000844  OBJ        1.000000000000e+00
    X0000845  C0000230   1.000000000000e+00
    X0000845  C0000253   1.000000000000e+00
    X0000845  OBJ        1.000000000000e+00
    X0000846  C0000230   1.000000000000e+00
    X0000846  C0000257   1.000000000000e+00
    X0000846  OBJ        1.000000000000e+00
    X0000847  C0000230   1.000000000000e+00
    X0000847  C0000261   1.000000000000e+00
    X0000847  OBJ        1.000000000000e+00
    X0000848  C0000230   1.000000000000e+00
    X0000848  C0000269   1.000000000000e+00
    X0000848  OBJ        1.000000000000e+00
    X0000849  C0000230   1.000000000000e+00
    X0000849  C0000277   1.000000000000e+00
    X0000849  OBJ        1.000000000000e+00
    X0000850  C0000230   1.000000000000e+00
    X0000850  C0000280   1.000000000000e+00
    X0000850  OBJ        1.000000000000e+00
    X0000851  C0000230   1.000000000000e+00
    X0000851  C0000282   1.000000000000e+00
    X0000851  OBJ        1.000000000000e+00
    X0000852  C0000230   1.000000000000e+00
    X0000852  C0000265   1.000000000000e+00
    X0000852  OBJ        1.000000000000e+00
    X0000853  C0000230   1.000000000000e+00
    X0000853  C0000273   1.000000000000e+00
    X0000853  OBJ        1.000000000000e+00
    X0000854  C0000177   1.000000000000e+00
    X0000854  C0000232   1.000000000000e+00
    X0000854  OBJ        1.000000000000e+00
    X0000855  C0000232   1.000000000000e+00
    X0000855  C0000239   1.000000000000e+00
    X0000855  OBJ        1.000000000000e+00
    X0000856  C0000232   1.000000000000e+00
    X0000856  C0000243   1.000000000000e+00
    X0000856  OBJ        1.000000000000e+00
    X0000857  C0000232   1.000000000000e+00
    X0000857  C0000247   1.000000000000e+00
    X0000857  OBJ        1.000000000000e+00
    X0000858  C0000232   1.000000000000e+00
    X0000858  C0000251   1.000000000000e+00
    X0000858  OBJ        1.000000000000e+00
    X0000859  C0000232   1.000000000000e+00
    X0000859  C0000255   1.000000000000e+00
    X0000859  OBJ        1.000000000000e+00
    X0000860  C0000232   1.000000000000e+00
    X0000860  C0000259   1.000000000000e+00
    X0000860  OBJ        1.000000000000e+00
    X0000861  C0000232   1.000000000000e+00
    X0000861  C0000263   1.000000000000e+00
    X0000861  OBJ        1.000000000000e+00
    X0000862  C0000232   1.000000000000e+00
    X0000862  C0000267   1.000000000000e+00
    X0000862  OBJ        1.000000000000e+00
    X0000863  C0000232   1.000000000000e+00
    X0000863  C0000271   1.000000000000e+00
    X0000863  OBJ        1.000000000000e+00
    X0000864  C0000232   1.000000000000e+00
    X0000864  C0000275   1.000000000000e+00
    X0000864  OBJ        1.000000000000e+00
    X0000865  C0000232   1.000000000000e+00
    X0000865  C0000279   1.000000000000e+00
    X0000865  OBJ        1.000000000000e+00
    X0000866  C0000232   1.000000000000e+00
    X0000866  C0000281   1.000000000000e+00
    X0000866  OBJ        1.000000000000e+00
    X0000867  C0000181   1.000000000000e+00
    X0000867  C0000232   1.000000000000e+00
    X0000867  OBJ        1.000000000000e+00
    X0000868  C0000186   1.000000000000e+00
    X0000868  C0000232   1.000000000000e+00
    X0000868  OBJ        1.000000000000e+00
    X0000869  C0000190   1.000000000000e+00
    X0000869  C0000232   1.000000000000e+00
    X0000869  OBJ        1.000000000000e+00
    X0000870  C0000194   1.000000000000e+00
    X0000870  C0000232   1.000000000000e+00
    X0000870  OBJ        1.000000000000e+00
    X0000871  C0000197   1.000000000000e+00
    X0000871  C0000232   1.000000000000e+00
    X0000871  OBJ        1.000000000000e+00
    X0000872  C0000173   1.000000000000e+00
    X0000872  C0000232   1.000000000000e+00
    X0000872  OBJ        1.000000000000e+00
    X0000873  C0000234   1.000000000000e+00
    X0000873  C0000241   1.000000000000e+00
    X0000873  OBJ        1.000000000000e+00
    X0000874  C0000234   1.000000000000e+00
    X0000874  C0000245   1.000000000000e+00
    X0000874  OBJ        1.000000000000e+00
    X0000875  C0000234   1.000000000000e+00
    X0000875  C0000249   1.000000000000e+00
    X0000875  OBJ        1.000000000000e+00
    X0000876  C0000234   1.000000000000e+00
    X0000876  C0000253   1.000000000000e+00
    X0000876  OBJ        1.000000000000e+00
    X0000877  C0000234   1.000000000000e+00
    X0000877  C0000257   1.000000000000e+00
    X0000877  OBJ        1.000000000000e+00
    X0000878  C0000234   1.000000000000e+00
    X0000878  C0000261   1.000000000000e+00
    X0000878  OBJ        1.000000000000e+00
    X0000879  C0000234   1.000000000000e+00
    X0000879  C0000269   1.000000000000e+00
    X0000879  OBJ        1.000000000000e+00
    X0000880  C0000234   1.000000000000e+00
    X0000880  C0000277   1.000000000000e+00
    X0000880  OBJ        1.000000000000e+00
    X0000881  C0000234   1.000000000000e+00
    X0000881  C0000280   1.000000000000e+00
    X0000881  OBJ        1.000000000000e+00
    X0000882  C0000234   1.000000000000e+00
    X0000882  C0000282   1.000000000000e+00
    X0000882  OBJ        1.000000000000e+00
    X0000883  C0000234   1.000000000000e+00
    X0000883  C0000265   1.000000000000e+00
    X0000883  OBJ        1.000000000000e+00
    X0000884  C0000234   1.000000000000e+00
    X0000884  C0000273   1.000000000000e+00
    X0000884  OBJ        1.000000000000e+00
    X0000885  C0000177   1.000000000000e+00
    X0000885  C0000236   1.000000000000e+00
    X0000885  OBJ        1.000000000000e+00
    X0000886  C0000236   1.000000000000e+00
    X0000886  C0000243   1.000000000000e+00
    X0000886  OBJ        1.000000000000e+00
    X0000887  C0000236   1.000000000000e+00
    X0000887  C0000247   1.000000000000e+00
    X0000887  OBJ        1.000000000000e+00
    X0000888  C0000236   1.000000000000e+00
    X0000888  C0000251   1.000000000000e+00
    X0000888  OBJ        1.000000000000e+00
    X0000889  C0000236   1.000000000000e+00
    X0000889  C0000255   1.000000000000e+00
    X0000889  OBJ        1.000000000000e+00
    X0000890  C0000236   1.000000000000e+00
    X0000890  C0000259   1.000000000000e+00
    X0000890  OBJ        1.000000000000e+00
    X0000891  C0000236   1.000000000000e+00
    X0000891  C0000263   1.000000000000e+00
    X0000891  OBJ        1.000000000000e+00
    X0000892  C0000236   1.000000000000e+00
    X0000892  C0000267   1.000000000000e+00
    X0000892  OBJ        1.000000000000e+00
    X0000893  C0000236   1.000000000000e+00
    X0000893  C0000271   1.000000000000e+00
    X0000893  OBJ        1.000000000000e+00
    X0000894  C0000236   1.000000000000e+00
    X0000894  C0000275   1.000000000000e+00
    X0000894  OBJ        1.000000000000e+00
    X0000895  C0000236   1.000000000000e+00
    X0000895  C0000279   1.000000000000e+00
    X0000895  OBJ        1.000000000000e+00
    X0000896  C0000236   1.000000000000e+00
    X0000896  C0000281   1.000000000000e+00
    X0000896  OBJ        1.000000000000e+00
    X0000897  C0000181   1.000000000000e+00
    X0000897  C0000236   1.000000000000e+00
    X0000897  OBJ        1.000000000000e+00
    X0000898  C0000186   1.000000000000e+00
    X0000898  C0000236   1.000000000000e+00
    X0000898  OBJ        1.000000000000e+00
    X0000899  C0000190   1.000000000000e+00
    X0000899  C0000236   1.000000000000e+00
    X0000899  OBJ        1.000000000000e+00
    X0000900  C0000194   1.000000000000e+00
    X0000900  C0000236   1.000000000000e+00
    X0000900  OBJ        1.000000000000e+00
    X0000901  C0000197   1.000000000000e+00
    X0000901  C0000236   1.000000000000e+00
    X0000901  OBJ        1.000000000000e+00
    X0000902  C0000238   1.000000000000e+00
    X0000902  C0000245   1.000000000000e+00
    X0000902  OBJ        1.000000000000e+00
    X0000903  C0000238   1.000000000000e+00
    X0000903  C0000249   1.000000000000e+00
    X0000903  OBJ        1.000000000000e+00
    X0000904  C0000238   1.000000000000e+00
    X0000904  C0000253   1.000000000000e+00
    X0000904  OBJ        1.000000000000e+00
    X0000905  C0000238   1.000000000000e+00
    X0000905  C0000257   1.000000000000e+00
    X0000905  OBJ        1.000000000000e+00
    X0000906  C0000238   1.000000000000e+00
    X0000906  C0000261   1.000000000000e+00
    X0000906  OBJ        1.000000000000e+00
    X0000907  C0000238   1.000000000000e+00
    X0000907  C0000269   1.000000000000e+00
    X0000907  OBJ        1.000000000000e+00
    X0000908  C0000238   1.000000000000e+00
    X0000908  C0000277   1.000000000000e+00
    X0000908  OBJ        1.000000000000e+00
    X0000909  C0000238   1.000000000000e+00
    X0000909  C0000280   1.000000000000e+00
    X0000909  OBJ        1.000000000000e+00
    X0000910  C0000238   1.000000000000e+00
    X0000910  C0000282   1.000000000000e+00
    X0000910  OBJ        1.000000000000e+00
    X0000911  C0000238   1.000000000000e+00
    X0000911  C0000265   1.000000000000e+00
    X0000911  OBJ        1.000000000000e+00
    X0000912  C0000238   1.000000000000e+00
    X0000912  C0000273   1.000000000000e+00
    X0000912  OBJ        1.000000000000e+00
    X0000913  C0000240   1.000000000000e+00
    X0000913  C0000247   1.000000000000e+00
    X0000913  OBJ        1.000000000000e+00
    X0000914  C0000240   1.000000000000e+00
    X0000914  C0000251   1.000000000000e+00
    X0000914  OBJ        1.000000000000e+00
    X0000915  C0000240   1.000000000000e+00
    X0000915  C0000255   1.000000000000e+00
    X0000915  OBJ        1.000000000000e+00
    X0000916  C0000240   1.000000000000e+00
    X0000916  C0000259   1.000000000000e+00
    X0000916  OBJ        1.000000000000e+00
    X0000917  C0000240   1.000000000000e+00
    X0000917  C0000263   1.000000000000e+00
    X0000917  OBJ        1.000000000000e+00
    X0000918  C0000240   1.000000000000e+00
    X0000918  C0000267   1.000000000000e+00
    X0000918  OBJ        1.000000000000e+00
    X0000919  C0000240   1.000000000000e+00
    X0000919  C0000271   1.000000000000e+00
    X0000919  OBJ        1.000000000000e+00
    X0000920  C0000240   1.000000000000e+00
    X0000920  C0000275   1.000000000000e+00
    X0000920  OBJ        1.000000000000e+00
    X0000921  C0000240   1.000000000000e+00
    X0000921  C0000279   1.000000000000e+00
    X0000921  OBJ        1.000000000000e+00
    X0000922  C0000240   1.000000000000e+00
    X0000922  C0000281   1.000000000000e+00
    X0000922  OBJ        1.000000000000e+00
    X0000923  C0000181   1.000000000000e+00
    X0000923  C0000240   1.000000000000e+00
    X0000923  OBJ        1.000000000000e+00
    X0000924  C0000186   1.000000000000e+00
    X0000924  C0000240   1.000000000000e+00
    X0000924  OBJ        1.000000000000e+00
    X0000925  C0000190   1.000000000000e+00
    X0000925  C0000240   1.000000000000e+00
    X0000925  OBJ        1.000000000000e+00
    X0000926  C0000194   1.000000000000e+00
    X0000926  C0000240   1.000000000000e+00
    X0000926  OBJ        1.000000000000e+00
    X0000927  C0000197   1.000000000000e+00
    X0000927  C0000240   1.000000000000e+00
    X0000927  OBJ        1.000000000000e+00
    X0000928  C0000242   1.000000000000e+00
    X0000928  C0000249   1.000000000000e+00
    X0000928  OBJ        1.000000000000e+00
    X0000929  C0000242   1.000000000000e+00
    X0000929  C0000253   1.000000000000e+00
    X0000929  OBJ        1.000000000000e+00
    X0000930  C0000242   1.000000000000e+00
    X0000930  C0000257   1.000000000000e+00
    X0000930  OBJ        1.000000000000e+00
    X0000931  C0000242   1.000000000000e+00
    X0000931  C0000261   1.000000000000e+00
    X0000931  OBJ        1.000000000000e+00
    X0000932  C0000242   1.000000000000e+00
    X0000932  C0000269   1.000000000000e+00
    X0000932  OBJ        1.000000000000e+00
    X0000933  C0000242   1.000000000000e+00
    X0000933  C0000277   1.000000000000e+00
    X0000933  OBJ        1.000000000000e+00
    X0000934  C0000242   1.000000000000e+00
    X0000934  C0000280   1.000000000000e+00
    X0000934  OBJ        1.000000000000e+00
    X0000935  C0000242   1.000000000000e+00
    X0000935  C0000282   1.000000000000e+00
    X0000935  OBJ        1.000000000000e+00
    X0000936  C0000242   1.000000000000e+00
    X0000936  C0000265   1.000000000000e+00
    X0000936  OBJ        1.000000000000e+00
    X0000937  C0000242   1.000000000000e+00
    X0000937  C0000273   1.000000000000e+00
    X0000937  OBJ        1.000000000000e+00
    X0000938  C0000244   1.000000000000e+00
    X0000938  C0000251   1.000000000000e+00
    X0000938  OBJ        1.000000000000e+00
    X0000939  C0000244   1.000000000000e+00
    X0000939  C0000255   1.000000000000e+00
    X0000939  OBJ        1.000000000000e+00
    X0000940  C0000244   1.000000000000e+00
    X0000940  C0000259   1.000000000000e+00
    X0000940  OBJ        1.000000000000e+00
    X0000941  C0000244   1.000000000000e+00
    X0000941  C0000263   1.000000000000e+00
    X0000941  OBJ        1.000000000000e+00
    X0000942  C0000244   1.000000000000e+00
    X0000942  C0000267   1.000000000000e+00
    X0000942  OBJ        1.000000000000e+00
    X0000943  C0000244   1.000000000000e+00
    X0000943  C0000271   1.000000000000e+00
    X0000943  OBJ        1.000000000000e+00
    X0000944  C0000244   1.000000000000e+00
    X0000944  C0000275   1.000000000000e+00
    X0000944  OBJ        1.000000000000e+00
    X0000945  C0000244   1.000000000000e+00
    X0000945  C0000279   1.000000000000e+00
    X0000945  OBJ        1.000000000000e+00
    X0000946  C0000244   1.000000000000e+00
    X0000946  C0000281   1.000000000000e+00
    X0000946  OBJ        1.000000000000e+00
    X0000947  C0000186   1.000000000000e+00
    X0000947  C0000244   1.000000000000e+00
    X0000947  OBJ        1.000000000000e+00
    X0000948  C0000190   1.000000000000e+00
    X0000948  C0000244   1.000000000000e+00
    X0000948  OBJ        1.000000000000e+00
    X0000949  C0000194   1.000000000000e+00
    X0000949  C0000244   1.000000000000e+00
    X0000949  OBJ        1.000000000000e+00
    X0000950  C0000197   1.000000000000e+00
    X0000950  C0000244   1.000000000000e+00
    X0000950  OBJ        1.000000000000e+00
    X0000951  C0000246   1.000000000000e+00
    X0000951  C0000253   1.000000000000e+00
    X0000951  OBJ        1.000000000000e+00
    X0000952  C0000246   1.000000000000e+00
    X0000952  C0000257   1.000000000000e+00
    X0000952  OBJ        1.000000000000e+00
    X0000953  C0000246   1.000000000000e+00
    X0000953  C0000261   1.000000000000e+00
    X0000953  OBJ        1.000000000000e+00
    X0000954  C0000246   1.000000000000e+00
    X0000954  C0000269   1.000000000000e+00
    X0000954  OBJ        1.000000000000e+00
    X0000955  C0000246   1.000000000000e+00
    X0000955  C0000277   1.000000000000e+00
    X0000955  OBJ        1.000000000000e+00
    X0000956  C0000246   1.000000000000e+00
    X0000956  C0000280   1.000000000000e+00
    X0000956  OBJ        1.000000000000e+00
    X0000957  C0000246   1.000000000000e+00
    X0000957  C0000282   1.000000000000e+00
    X0000957  OBJ        1.000000000000e+00
    X0000958  C0000246   1.000000000000e+00
    X0000958  C0000265   1.000000000000e+00
    X0000958  OBJ        1.000000000000e+00
    X0000959  C0000246   1.000000000000e+00
    X0000959  C0000273   1.000000000000e+00
    X0000959  OBJ        1.000000000000e+00
    X0000960  C0000248   1.000000000000e+00
    X0000960  C0000255   1.000000000000e+00
    X0000960  OBJ        1.000000000000e+00
    X0000961  C0000248   1.000000000000e+00
    X0000961  C0000259   1.000000000000e+00
    X0000961  OBJ        1.000000000000e+00
    X0000962  C0000248   1.000000000000e+00
    X0000962  C0000263   1.000000000000e+00
    X0000962  OBJ        1.000000000000e+00
    X0000963  C0000248   1.000000000000e+00
    X0000963  C0000267   1.000000000000e+00
    X0000963  OBJ        1.000000000000e+00
    X0000964  C0000248   1.000000000000e+00
    X0000964  C0000271   1.000000000000e+00
    X0000964  OBJ        1.000000000000e+00
    X0000965  C0000248   1.000000000000e+00
    X0000965  C0000275   1.000000000000e+00
    X0000965  OBJ        1.000000000000e+00
    X0000966  C0000248   1.000000000000e+00
    X0000966  C0000279   1.000000000000e+00
    X0000966  OBJ        1.000000000000e+00
    X0000967  C0000248   1.000000000000e+00
    X0000967  C0000281   1.000000000000e+00
    X0000967  OBJ        1.000000000000e+00
    X0000968  C0000190   1.000000000000e+00
    X0000968  C0000248   1.000000000000e+00
    X0000968  OBJ        1.000000000000e+00
    X0000969  C0000194   1.000000000000e+00
    X0000969  C0000248   1.000000000000e+00
    X0000969  OBJ        1.000000000000e+00
    X0000970  C0000197   1.000000000000e+00
    X0000970  C0000248   1.000000000000e+00
    X0000970  OBJ        1.000000000000e+00
    X0000971  C0000250   1.000000000000e+00
    X0000971  C0000257   1.000000000000e+00
    X0000971  OBJ        1.000000000000e+00
    X0000972  C0000250   1.000000000000e+00
    X0000972  C0000261   1.000000000000e+00
    X0000972  OBJ        1.000000000000e+00
    X0000973  C0000250   1.000000000000e+00
    X0000973  C0000269   1.000000000000e+00
    X0000973  OBJ        1.000000000000e+00
    X0000974  C0000250   1.000000000000e+00
    X0000974  C0000277   1.000000000000e+00
    X0000974  OBJ        1.000000000000e+00
    X0000975  C0000250   1.000000000000e+00
    X0000975  C0000280   1.000000000000e+00
    X0000975  OBJ        1.000000000000e+00
    X0000976  C0000250   1.000000000000e+00
    X0000976  C0000282   1.000000000000e+00
    X0000976  OBJ        1.000000000000e+00
    X0000977  C0000250   1.000000000000e+00
    X0000977  C0000265   1.000000000000e+00
    X0000977  OBJ        1.000000000000e+00
    X0000978  C0000250   1.000000000000e+00
    X0000978  C0000273   1.000000000000e+00
    X0000978  OBJ        1.000000000000e+00
    X0000979  C0000252   1.000000000000e+00
    X0000979  C0000259   1.000000000000e+00
    X0000979  OBJ        1.000000000000e+00
    X0000980  C0000252   1.000000000000e+00
    X0000980  C0000263   1.000000000000e+00
    X0000980  OBJ        1.000000000000e+00
    X0000981  C0000252   1.000000000000e+00
    X0000981  C0000267   1.000000000000e+00
    X0000981  OBJ        1.000000000000e+00
    X0000982  C0000252   1.000000000000e+00
    X0000982  C0000271   1.000000000000e+00
    X0000982  OBJ        1.000000000000e+00
    X0000983  C0000252   1.000000000000e+00
    X0000983  C0000275   1.000000000000e+00
    X0000983  OBJ        1.000000000000e+00
    X0000984  C0000252   1.000000000000e+00
    X0000984  C0000279   1.000000000000e+00
    X0000984  OBJ        1.000000000000e+00
    X0000985  C0000252   1.000000000000e+00
    X0000985  C0000281   1.000000000000e+00
    X0000985  OBJ        1.000000000000e+00
    X0000986  C0000194   1.000000000000e+00
    X0000986  C0000252   1.000000000000e+00
    X0000986  OBJ        1.000000000000e+00
    X0000987  C0000197   1.000000000000e+00
    X0000987  C0000252   1.000000000000e+00
    X0000987  OBJ        1.000000000000e+00
    X0000988  C0000254   1.000000000000e+00
    X0000988  C0000261   1.000000000000e+00
    X0000988  OBJ        1.000000000000e+00
    X0000989  C0000254   1.000000000000e+00
    X0000989  C0000269   1.000000000000e+00
    X0000989  OBJ        1.000000000000e+00
    X0000990  C0000254   1.000000000000e+00
    X0000990  C0000277   1.000000000000e+00
    X0000990  OBJ        1.000000000000e+00
    X0000991  C0000254   1.000000000000e+00
    X0000991  C0000280   1.000000000000e+00
    X0000991  OBJ        1.000000000000e+00
    X0000992  C0000254   1.000000000000e+00
    X0000992  C0000282   1.000000000000e+00
    X0000992  OBJ        1.000000000000e+00
    X0000993  C0000254   1.000000000000e+00
    X0000993  C0000265   1.000000000000e+00
    X0000993  OBJ        1.000000000000e+00
    X0000994  C0000254   1.000000000000e+00
    X0000994  C0000273   1.000000000000e+00
    X0000994  OBJ        1.000000000000e+00
    X0000995  C0000256   1.000000000000e+00
    X0000995  C0000263   1.000000000000e+00
    X0000995  OBJ        1.000000000000e+00
    X0000996  C0000256   1.000000000000e+00
    X0000996  C0000267   1.000000000000e+00
    X0000996  OBJ        1.000000000000e+00
    X0000997  C0000256   1.000000000000e+00
    X0000997  C0000271   1.000000000000e+00
    X0000997  OBJ        1.000000000000e+00
    X0000998  C0000256   1.000000000000e+00
    X0000998  C0000275   1.000000000000e+00
    X0000998  OBJ        1.000000000000e+00
    X0000999  C0000256   1.000000000000e+00
    X0000999  C0000279   1.000000000000e+00
    X0000999  OBJ        1.000000000000e+00
    X0001000  C0000256   1.000000000000e+00
    X0001000  C0000281   1.000000000000e+00
    X0001000  OBJ        1.000000000000e+00
    X0001001  C0000197   1.000000000000e+00
    X0001001  C0000256   1.000000000000e+00
    X0001001  OBJ        1.000000000000e+00
    X0001002  C0000258   1.000000000000e+00
    X0001002  C0000269   1.000000000000e+00
    X0001002  OBJ        1.000000000000e+00
    X0001003  C0000258   1.000000000000e+00
    X0001003  C0000277   1.000000000000e+00
    X0001003  OBJ        1.000000000000e+00
    X0001004  C0000258   1.000000000000e+00
    X0001004  C0000280   1.000000000000e+00
    X0001004  OBJ        1.000000000000e+00
    X0001005  C0000258   1.000000000000e+00
    X0001005  C0000282   1.000000000000e+00
    X0001005  OBJ        1.000000000000e+00
    X0001006  C0000258   1.000000000000e+00
    X0001006  C0000265   1.000000000000e+00
    X0001006  OBJ        1.000000000000e+00
    X0001007  C0000258   1.000000000000e+00
    X0001007  C0000273   1.000000000000e+00
    X0001007  OBJ        1.000000000000e+00
    X0001008  C0000260   1.000000000000e+00
    X0001008  C0000267   1.000000000000e+00
    X0001008  OBJ        1.000000000000e+00
    X0001009  C0000260   1.000000000000e+00
    X0001009  C0000271   1.000000000000e+00
    X0001009  OBJ        1.000000000000e+00
    X0001010  C0000260   1.000000000000e+00
    X0001010  C0000275   1.000000000000e+00
    X0001010  OBJ        1.000000000000e+00
    X0001011  C0000260   1.000000000000e+00
    X0001011  C0000279   1.000000000000e+00
    X0001011  OBJ        1.000000000000e+00
    X0001012  C0000260   1.000000000000e+00
    X0001012  C0000281   1.000000000000e+00
    X0001012  OBJ        1.000000000000e+00
    X0001013  C0000197   1.000000000000e+00
    X0001013  C0000260   1.000000000000e+00
    X0001013  OBJ        1.000000000000e+00
    X0001014  C0000262   1.000000000000e+00
    X0001014  C0000269   1.000000000000e+00
    X0001014  OBJ        1.000000000000e+00
    X0001015  C0000262   1.000000000000e+00
    X0001015  C0000277   1.000000000000e+00
    X0001015  OBJ        1.000000000000e+00
    X0001016  C0000262   1.000000000000e+00
    X0001016  C0000280   1.000000000000e+00
    X0001016  OBJ        1.000000000000e+00
    X0001017  C0000262   1.000000000000e+00
    X0001017  C0000282   1.000000000000e+00
    X0001017  OBJ        1.000000000000e+00
    X0001018  C0000262   1.000000000000e+00
    X0001018  C0000273   1.000000000000e+00
    X0001018  OBJ        1.000000000000e+00
    X0001019  C0000266   1.000000000000e+00
    X0001019  C0000269   1.000000000000e+00
    X0001019  OBJ        1.000000000000e+00
    X0001020  C0000266   1.000000000000e+00
    X0001020  C0000277   1.000000000000e+00
    X0001020  OBJ        1.000000000000e+00
    X0001021  C0000266   1.000000000000e+00
    X0001021  C0000280   1.000000000000e+00
    X0001021  OBJ        1.000000000000e+00
    X0001022  C0000266   1.000000000000e+00
    X0001022  C0000282   1.000000000000e+00
    X0001022  OBJ        1.000000000000e+00
    X0001023  C0000266   1.000000000000e+00
    X0001023  C0000273   1.000000000000e+00
    X0001023  OBJ        1.000000000000e+00
    X0001024  C0000268   1.000000000000e+00
    X0001024  C0000279   1.000000000000e+00
    X0001024  OBJ        1.000000000000e+00
    X0001025  C0000268   1.000000000000e+00
    X0001025  C0000281   1.000000000000e+00
    X0001025  OBJ        1.000000000000e+00
    X0001026  C0000270   1.000000000000e+00
    X0001026  C0000277   1.000000000000e+00
    X0001026  OBJ        1.000000000000e+00
    X0001027  C0000270   1.000000000000e+00
    X0001027  C0000280   1.000000000000e+00
    X0001027  OBJ        1.000000000000e+00
    X0001028  C0000270   1.000000000000e+00
    X0001028  C0000282   1.000000000000e+00
    X0001028  OBJ        1.000000000000e+00
    X0001029  C0000270   1.000000000000e+00
    X0001029  C0000273   1.000000000000e+00
    X0001029  OBJ        1.000000000000e+00
    X0001030  C0000274   1.000000000000e+00
    X0001030  C0000280   1.000000000000e+00
    X0001030  OBJ        1.000000000000e+00
    X0001031  C0000274   1.000000000000e+00
    X0001031  C0000282   1.000000000000e+00
    X0001031  OBJ        1.000000000000e+00
    X0001032  C0000276   1.000000000000e+00
    X0001032  C0000281   1.000000000000e+00
    X0001032  OBJ        1.000000000000e+00
    X0001033  C0000278   1.000000000000e+00
    X0001033  C0000282   1.000000000000e+00
    X0001033  OBJ        1.000000000000e+00
    X0001034  C0000198   1.000000000000e+00
    X0001034  C0000202   1.000000000000e+00
    X0001034  OBJ        1.000000000000e+00
    X0001035  C0000198   1.000000000000e+00
    X0001035  C0000209   1.000000000000e+00
    X0001035  OBJ        1.000000000000e+00
    X0001036  C0000198   1.000000000000e+00
    X0001036  C0000213   1.000000000000e+00
    X0001036  OBJ        1.000000000000e+00
    X0001037  C0000198   1.000000000000e+00
    X0001037  C0000217   1.000000000000e+00
    X0001037  OBJ        1.000000000000e+00
    X0001038  C0000198   1.000000000000e+00
    X0001038  C0000221   1.000000000000e+00
    X0001038  OBJ        1.000000000000e+00
    X0001039  C0000198   1.000000000000e+00
    X0001039  C0000225   1.000000000000e+00
    X0001039  OBJ        1.000000000000e+00
    X0001040  C0000198   1.000000000000e+00
    X0001040  C0000229   1.000000000000e+00
    X0001040  OBJ        1.000000000000e+00
    X0001041  C0000198   1.000000000000e+00
    X0001041  C0000233   1.000000000000e+00
    X0001041  OBJ        1.000000000000e+00
    X0001042  C0000198   1.000000000000e+00
    X0001042  C0000237   1.000000000000e+00
    X0001042  OBJ        1.000000000000e+00
    X0001043  C0000198   1.000000000000e+00
    X0001043  C0000241   1.000000000000e+00
    X0001043  OBJ        1.000000000000e+00
    X0001044  C0000198   1.000000000000e+00
    X0001044  C0000245   1.000000000000e+00
    X0001044  OBJ        1.000000000000e+00
    X0001045  C0000198   1.000000000000e+00
    X0001045  C0000249   1.000000000000e+00
    X0001045  OBJ        1.000000000000e+00
    X0001046  C0000198   1.000000000000e+00
    X0001046  C0000253   1.000000000000e+00
    X0001046  OBJ        1.000000000000e+00
    X0001047  C0000198   1.000000000000e+00
    X0001047  C0000257   1.000000000000e+00
    X0001047  OBJ        1.000000000000e+00
    X0001048  C0000198   1.000000000000e+00
    X0001048  C0000261   1.000000000000e+00
    X0001048  OBJ        1.000000000000e+00
    X0001049  C0000198   1.000000000000e+00
    X0001049  C0000269   1.000000000000e+00
    X0001049  OBJ        1.000000000000e+00
    X0001050  C0000198   1.000000000000e+00
    X0001050  C0000277   1.000000000000e+00
    X0001050  OBJ        1.000000000000e+00
    X0001051  C0000198   1.000000000000e+00
    X0001051  C0000280   1.000000000000e+00
    X0001051  OBJ        1.000000000000e+00
    X0001052  C0000198   1.000000000000e+00
    X0001052  C0000282   1.000000000000e+00
    X0001052  OBJ        1.000000000000e+00
    X0001053  C0000198   1.000000000000e+00
    X0001053  C0000205   1.000000000000e+00
    X0001053  OBJ        1.000000000000e+00
    X0001054  C0000198   1.000000000000e+00
    X0001054  C0000265   1.000000000000e+00
    X0001054  OBJ        1.000000000000e+00
    X0001055  C0000198   1.000000000000e+00
    X0001055  C0000273   1.000000000000e+00
    X0001055  OBJ        1.000000000000e+00
    X0001056  C0000165   1.000000000000e+00
    X0001056  C0000204   1.000000000000e+00
    X0001056  OBJ        1.000000000000e+00
    X0001057  C0000169   1.000000000000e+00
    X0001057  C0000204   1.000000000000e+00
    X0001057  OBJ        1.000000000000e+00
    X0001058  C0000177   1.000000000000e+00
    X0001058  C0000204   1.000000000000e+00
    X0001058  OBJ        1.000000000000e+00
    X0001059  C0000204   1.000000000000e+00
    X0001059  C0000223   1.000000000000e+00
    X0001059  OBJ        1.000000000000e+00
    X0001060  C0000204   1.000000000000e+00
    X0001060  C0000215   1.000000000000e+00
    X0001060  OBJ        1.000000000000e+00
    X0001061  C0000204   1.000000000000e+00
    X0001061  C0000219   1.000000000000e+00
    X0001061  OBJ        1.000000000000e+00
    X0001062  C0000204   1.000000000000e+00
    X0001062  C0000227   1.000000000000e+00
    X0001062  OBJ        1.000000000000e+00
    X0001063  C0000204   1.000000000000e+00
    X0001063  C0000231   1.000000000000e+00
    X0001063  OBJ        1.000000000000e+00
    X0001064  C0000204   1.000000000000e+00
    X0001064  C0000235   1.000000000000e+00
    X0001064  OBJ        1.000000000000e+00
    X0001065  C0000204   1.000000000000e+00
    X0001065  C0000239   1.000000000000e+00
    X0001065  OBJ        1.000000000000e+00
    X0001066  C0000204   1.000000000000e+00
    X0001066  C0000243   1.000000000000e+00
    X0001066  OBJ        1.000000000000e+00
    X0001067  C0000204   1.000000000000e+00
    X0001067  C0000247   1.000000000000e+00
    X0001067  OBJ        1.000000000000e+00
    X0001068  C0000204   1.000000000000e+00
    X0001068  C0000251   1.000000000000e+00
    X0001068  OBJ        1.000000000000e+00
    X0001069  C0000204   1.000000000000e+00
    X0001069  C0000255   1.000000000000e+00
    X0001069  OBJ        1.000000000000e+00
    X0001070  C0000204   1.000000000000e+00
    X0001070  C0000259   1.000000000000e+00
    X0001070  OBJ        1.000000000000e+00
    X0001071  C0000204   1.000000000000e+00
    X0001071  C0000263   1.000000000000e+00
    X0001071  OBJ        1.000000000000e+00
    X0001072  C0000204   1.000000000000e+00
    X0001072  C0000267   1.000000000000e+00
    X0001072  OBJ        1.000000000000e+00
    X0001073  C0000204   1.000000000000e+00
    X0001073  C0000271   1.000000000000e+00
    X0001073  OBJ        1.000000000000e+00
    X0001074  C0000204   1.000000000000e+00
    X0001074  C0000275   1.000000000000e+00
    X0001074  OBJ        1.000000000000e+00
    X0001075  C0000204   1.000000000000e+00
    X0001075  C0000279   1.000000000000e+00
    X0001075  OBJ        1.000000000000e+00
    X0001076  C0000204   1.000000000000e+00
    X0001076  C0000281   1.000000000000e+00
    X0001076  OBJ        1.000000000000e+00
    X0001077  C0000181   1.000000000000e+00
    X0001077  C0000204   1.000000000000e+00
    X0001077  OBJ        1.000000000000e+00
    X0001078  C0000186   1.000000000000e+00
    X0001078  C0000204   1.000000000000e+00
    X0001078  OBJ        1.000000000000e+00
    X0001079  C0000190   1.000000000000e+00
    X0001079  C0000204   1.000000000000e+00
    X0001079  OBJ        1.000000000000e+00
    X0001080  C0000194   1.000000000000e+00
    X0001080  C0000204   1.000000000000e+00
    X0001080  OBJ        1.000000000000e+00
    X0001081  C0000197   1.000000000000e+00
    X0001081  C0000204   1.000000000000e+00
    X0001081  OBJ        1.000000000000e+00
    X0001082  C0000153   1.000000000000e+00
    X0001082  C0000204   1.000000000000e+00
    X0001082  OBJ        1.000000000000e+00
    X0001083  C0000157   1.000000000000e+00
    X0001083  C0000204   1.000000000000e+00
    X0001083  OBJ        1.000000000000e+00
    X0001084  C0000161   1.000000000000e+00
    X0001084  C0000204   1.000000000000e+00
    X0001084  OBJ        1.000000000000e+00
    X0001085  C0000173   1.000000000000e+00
    X0001085  C0000204   1.000000000000e+00
    X0001085  OBJ        1.000000000000e+00
    X0001086  C0000073   1.000000000000e+00
    X0001086  C0000204   1.000000000000e+00
    X0001086  OBJ        1.000000000000e+00
    X0001087  C0000264   1.000000000000e+00
    X0001087  C0000271   1.000000000000e+00
    X0001087  OBJ        1.000000000000e+00
    X0001088  C0000264   1.000000000000e+00
    X0001088  C0000275   1.000000000000e+00
    X0001088  OBJ        1.000000000000e+00
    X0001089  C0000264   1.000000000000e+00
    X0001089  C0000279   1.000000000000e+00
    X0001089  OBJ        1.000000000000e+00
    X0001090  C0000264   1.000000000000e+00
    X0001090  C0000281   1.000000000000e+00
    X0001090  OBJ        1.000000000000e+00
    X0001091  C0000272   1.000000000000e+00
    X0001091  C0000279   1.000000000000e+00
    X0001091  OBJ        1.000000000000e+00
    X0001092  C0000272   1.000000000000e+00
    X0001092  C0000281   1.000000000000e+00
    X0001092  OBJ        1.000000000000e+00
    X0001093  C0000054   1.000000000000e+00
    X0001093  C0000283   1.000000000000e+00
    X0001093  OBJ        1.000000000000e+00
    X0001094  C0000283   1.000000000000e+00
    X0001094  C0000295   1.000000000000e+00
    X0001094  OBJ        1.000000000000e+00
    X0001095  C0000046   1.000000000000e+00
    X0001095  C0000283   1.000000000000e+00
    X0001095  OBJ        1.000000000000e+00
    X0001096  C0000026   1.000000000000e+00
    X0001096  C0000283   1.000000000000e+00
    X0001096  OBJ        1.000000000000e+00
    X0001097  C0000175   1.000000000000e+00
    X0001097  C0000283   1.000000000000e+00
    X0001097  OBJ        1.000000000000e+00
    X0001098  C0000182   1.000000000000e+00
    X0001098  C0000283   1.000000000000e+00
    X0001098  OBJ        1.000000000000e+00
    X0001099  C0000283   1.000000000000e+00
    X0001099  C0000291   1.000000000000e+00
    X0001099  OBJ        1.000000000000e+00
    X0001100  C0000042   1.000000000000e+00
    X0001100  C0000283   1.000000000000e+00
    X0001100  OBJ        1.000000000000e+00
    X0001101  C0000053   1.000000000000e+00
    X0001101  C0000283   1.000000000000e+00
    X0001101  OBJ        1.000000000000e+00
    X0001102  C0000146   1.000000000000e+00
    X0001102  C0000283   1.000000000000e+00
    X0001102  OBJ        1.000000000000e+00
    X0001103  C0000179   1.000000000000e+00
    X0001103  C0000283   1.000000000000e+00
    X0001103  OBJ        1.000000000000e+00
    X0001104  C0000128   1.000000000000e+00
    X0001104  C0000283   1.000000000000e+00
    X0001104  OBJ        1.000000000000e+00
    X0001105  C0000135   1.000000000000e+00
    X0001105  C0000283   1.000000000000e+00
    X0001105  OBJ        1.000000000000e+00
    X0001106  C0000111   1.000000000000e+00
    X0001106  C0000283   1.000000000000e+00
    X0001106  OBJ        1.000000000000e+00
    X0001107  C0000012   1.000000000000e+00
    X0001107  C0000283   1.000000000000e+00
    X0001107  OBJ        1.000000000000e+00
    X0001108  C0000155   1.000000000000e+00
    X0001108  C0000283   1.000000000000e+00
    X0001108  OBJ        1.000000000000e+00
    X0001109  C0000167   1.000000000000e+00
    X0001109  C0000283   1.000000000000e+00
    X0001109  OBJ        1.000000000000e+00
    X0001110  C0000184   1.000000000000e+00
    X0001110  C0000283   1.000000000000e+00
    X0001110  OBJ        1.000000000000e+00
    X0001111  C0000188   1.000000000000e+00
    X0001111  C0000283   1.000000000000e+00
    X0001111  OBJ        1.000000000000e+00
    X0001112  C0000192   1.000000000000e+00
    X0001112  C0000283   1.000000000000e+00
    X0001112  OBJ        1.000000000000e+00
    X0001113  C0000283   1.000000000000e+00
    X0001113  C0000304   1.000000000000e+00
    X0001113  OBJ        1.000000000000e+00
    X0001114  C0000283   1.000000000000e+00
    X0001114  C0000287   1.000000000000e+00
    X0001114  OBJ        1.000000000000e+00
    X0001115  C0000283   1.000000000000e+00
    X0001115  C0000286   1.000000000000e+00
    X0001115  OBJ        1.000000000000e+00
    X0001116  C0000283   1.000000000000e+00
    X0001116  C0000298   1.000000000000e+00
    X0001116  OBJ        1.000000000000e+00
    X0001117  C0000283   1.000000000000e+00
    X0001117  C0000288   1.000000000000e+00
    X0001117  OBJ        1.000000000000e+00
    X0001118  C0000032   1.000000000000e+00
    X0001118  C0000283   1.000000000000e+00
    X0001118  OBJ        1.000000000000e+00
    X0001119  C0000036   1.000000000000e+00
    X0001119  C0000283   1.000000000000e+00
    X0001119  OBJ        1.000000000000e+00
    X0001120  C0000040   1.000000000000e+00
    X0001120  C0000283   1.000000000000e+00
    X0001120  OBJ        1.000000000000e+00
    X0001121  C0000022   1.000000000000e+00
    X0001121  C0000283   1.000000000000e+00
    X0001121  OBJ        1.000000000000e+00
    X0001122  C0000030   1.000000000000e+00
    X0001122  C0000283   1.000000000000e+00
    X0001122  OBJ        1.000000000000e+00
    X0001123  C0000050   1.000000000000e+00
    X0001123  C0000283   1.000000000000e+00
    X0001123  OBJ        1.000000000000e+00
    X0001124  C0000143   1.000000000000e+00
    X0001124  C0000283   1.000000000000e+00
    X0001124  OBJ        1.000000000000e+00
    X0001125  C0000151   1.000000000000e+00
    X0001125  C0000283   1.000000000000e+00
    X0001125  OBJ        1.000000000000e+00
    X0001126  C0000195   1.000000000000e+00
    X0001126  C0000283   1.000000000000e+00
    X0001126  OBJ        1.000000000000e+00
    X0001127  C0000159   1.000000000000e+00
    X0001127  C0000283   1.000000000000e+00
    X0001127  OBJ        1.000000000000e+00
    X0001128  C0000171   1.000000000000e+00
    X0001128  C0000283   1.000000000000e+00
    X0001128  OBJ        1.000000000000e+00
    X0001129  C0000163   1.000000000000e+00
    X0001129  C0000283   1.000000000000e+00
    X0001129  OBJ        1.000000000000e+00
    X0001130  C0000136   1.000000000000e+00
    X0001130  C0000283   1.000000000000e+00
    X0001130  OBJ        1.000000000000e+00
    X0001131  C0000137   1.000000000000e+00
    X0001131  C0000283   1.000000000000e+00
    X0001131  OBJ        1.000000000000e+00
    X0001132  C0000134   1.000000000000e+00
    X0001132  C0000283   1.000000000000e+00
    X0001132  OBJ        1.000000000000e+00
    X0001133  C0000001   1.000000000000e+00
    X0001133  C0000283   1.000000000000e+00
    X0001133  OBJ        1.000000000000e+00
    X0001134  C0000013   1.000000000000e+00
    X0001134  C0000283   1.000000000000e+00
    X0001134  OBJ        1.000000000000e+00
    X0001135  C0000014   1.000000000000e+00
    X0001135  C0000283   1.000000000000e+00
    X0001135  OBJ        1.000000000000e+00
    X0001136  C0000016   1.000000000000e+00
    X0001136  C0000283   1.000000000000e+00
    X0001136  OBJ        1.000000000000e+00
    X0001137  C0000006   1.000000000000e+00
    X0001137  C0000283   1.000000000000e+00
    X0001137  OBJ        1.000000000000e+00
    X0001138  C0000109   1.000000000000e+00
    X0001138  C0000283   1.000000000000e+00
    X0001138  OBJ        1.000000000000e+00
    X0001139  C0000105   1.000000000000e+00
    X0001139  C0000283   1.000000000000e+00
    X0001139  OBJ        1.000000000000e+00
    X0001140  C0000103   1.000000000000e+00
    X0001140  C0000283   1.000000000000e+00
    X0001140  OBJ        1.000000000000e+00
    X0001141  C0000099   1.000000000000e+00
    X0001141  C0000283   1.000000000000e+00
    X0001141  OBJ        1.000000000000e+00
    X0001142  C0000121   1.000000000000e+00
    X0001142  C0000283   1.000000000000e+00
    X0001142  OBJ        1.000000000000e+00
    X0001143  C0000117   1.000000000000e+00
    X0001143  C0000283   1.000000000000e+00
    X0001143  OBJ        1.000000000000e+00
    X0001144  C0000097   1.000000000000e+00
    X0001144  C0000283   1.000000000000e+00
    X0001144  OBJ        1.000000000000e+00
    X0001145  C0000094   1.000000000000e+00
    X0001145  C0000283   1.000000000000e+00
    X0001145  OBJ        1.000000000000e+00
    X0001146  C0000054   1.000000000000e+00
    X0001146  C0000305   1.000000000000e+00
    X0001146  OBJ        1.000000000000e+00
    X0001147  C0000295   1.000000000000e+00
    X0001147  C0000305   1.000000000000e+00
    X0001147  OBJ        1.000000000000e+00
    X0001148  C0000046   1.000000000000e+00
    X0001148  C0000305   1.000000000000e+00
    X0001148  OBJ        1.000000000000e+00
    X0001149  C0000026   1.000000000000e+00
    X0001149  C0000305   1.000000000000e+00
    X0001149  OBJ        1.000000000000e+00
    X0001150  C0000175   1.000000000000e+00
    X0001150  C0000305   1.000000000000e+00
    X0001150  OBJ        1.000000000000e+00
    X0001151  C0000182   1.000000000000e+00
    X0001151  C0000305   1.000000000000e+00
    X0001151  OBJ        1.000000000000e+00
    X0001152  C0000291   1.000000000000e+00
    X0001152  C0000305   1.000000000000e+00
    X0001152  OBJ        1.000000000000e+00
    X0001153  C0000042   1.000000000000e+00
    X0001153  C0000305   1.000000000000e+00
    X0001153  OBJ        1.000000000000e+00
    X0001154  C0000053   1.000000000000e+00
    X0001154  C0000305   1.000000000000e+00
    X0001154  OBJ        1.000000000000e+00
    X0001155  C0000146   1.000000000000e+00
    X0001155  C0000305   1.000000000000e+00
    X0001155  OBJ        1.000000000000e+00
    X0001156  C0000179   1.000000000000e+00
    X0001156  C0000305   1.000000000000e+00
    X0001156  OBJ        1.000000000000e+00
    X0001157  C0000128   1.000000000000e+00
    X0001157  C0000305   1.000000000000e+00
    X0001157  OBJ        1.000000000000e+00
    X0001158  C0000135   1.000000000000e+00
    X0001158  C0000305   1.000000000000e+00
    X0001158  OBJ        1.000000000000e+00
    X0001159  C0000111   1.000000000000e+00
    X0001159  C0000305   1.000000000000e+00
    X0001159  OBJ        1.000000000000e+00
    X0001160  C0000012   1.000000000000e+00
    X0001160  C0000305   1.000000000000e+00
    X0001160  OBJ        1.000000000000e+00
    X0001161  C0000155   1.000000000000e+00
    X0001161  C0000305   1.000000000000e+00
    X0001161  OBJ        1.000000000000e+00
    X0001162  C0000167   1.000000000000e+00
    X0001162  C0000305   1.000000000000e+00
    X0001162  OBJ        1.000000000000e+00
    X0001163  C0000184   1.000000000000e+00
    X0001163  C0000305   1.000000000000e+00
    X0001163  OBJ        1.000000000000e+00
    X0001164  C0000188   1.000000000000e+00
    X0001164  C0000305   1.000000000000e+00
    X0001164  OBJ        1.000000000000e+00
    X0001165  C0000192   1.000000000000e+00
    X0001165  C0000305   1.000000000000e+00
    X0001165  OBJ        1.000000000000e+00
    X0001166  C0000304   1.000000000000e+00
    X0001166  C0000305   1.000000000000e+00
    X0001166  OBJ        1.000000000000e+00
    X0001167  C0000287   1.000000000000e+00
    X0001167  C0000305   1.000000000000e+00
    X0001167  OBJ        1.000000000000e+00
    X0001168  C0000286   1.000000000000e+00
    X0001168  C0000305   1.000000000000e+00
    X0001168  OBJ        1.000000000000e+00
    X0001169  C0000298   1.000000000000e+00
    X0001169  C0000305   1.000000000000e+00
    X0001169  OBJ        1.000000000000e+00
    X0001170  C0000288   1.000000000000e+00
    X0001170  C0000305   1.000000000000e+00
    X0001170  OBJ        1.000000000000e+00
    X0001171  C0000032   1.000000000000e+00
    X0001171  C0000305   1.000000000000e+00
    X0001171  OBJ        1.000000000000e+00
    X0001172  C0000036   1.000000000000e+00
    X0001172  C0000305   1.000000000000e+00
    X0001172  OBJ        1.000000000000e+00
    X0001173  C0000040   1.000000000000e+00
    X0001173  C0000305   1.000000000000e+00
    X0001173  OBJ        1.000000000000e+00
    X0001174  C0000030   1.000000000000e+00
    X0001174  C0000305   1.000000000000e+00
    X0001174  OBJ        1.000000000000e+00
    X0001175  C0000050   1.000000000000e+00
    X0001175  C0000305   1.000000000000e+00
    X0001175  OBJ        1.000000000000e+00
    X0001176  C0000151   1.000000000000e+00
    X0001176  C0000305   1.000000000000e+00
    X0001176  OBJ        1.000000000000e+00
    X0001177  C0000195   1.000000000000e+00
    X0001177  C0000305   1.000000000000e+00
    X0001177  OBJ        1.000000000000e+00
    X0001178  C0000159   1.000000000000e+00
    X0001178  C0000305   1.000000000000e+00
    X0001178  OBJ        1.000000000000e+00
    X0001179  C0000171   1.000000000000e+00
    X0001179  C0000305   1.000000000000e+00
    X0001179  OBJ        1.000000000000e+00
    X0001180  C0000163   1.000000000000e+00
    X0001180  C0000305   1.000000000000e+00
    X0001180  OBJ        1.000000000000e+00
    X0001181  C0000136   1.000000000000e+00
    X0001181  C0000305   1.000000000000e+00
    X0001181  OBJ        1.000000000000e+00
    X0001182  C0000137   1.000000000000e+00
    X0001182  C0000305   1.000000000000e+00
    X0001182  OBJ        1.000000000000e+00
    X0001183  C0000134   1.000000000000e+00
    X0001183  C0000305   1.000000000000e+00
    X0001183  OBJ        1.000000000000e+00
    X0001184  C0000013   1.000000000000e+00
    X0001184  C0000305   1.000000000000e+00
    X0001184  OBJ        1.000000000000e+00
    X0001185  C0000014   1.000000000000e+00
    X0001185  C0000305   1.000000000000e+00
    X0001185  OBJ        1.000000000000e+00
    X0001186  C0000016   1.000000000000e+00
    X0001186  C0000305   1.000000000000e+00
    X0001186  OBJ        1.000000000000e+00
    X0001187  C0000006   1.000000000000e+00
    X0001187  C0000305   1.000000000000e+00
    X0001187  OBJ        1.000000000000e+00
    X0001188  C0000109   1.000000000000e+00
    X0001188  C0000305   1.000000000000e+00
    X0001188  OBJ        1.000000000000e+00
    X0001189  C0000105   1.000000000000e+00
    X0001189  C0000305   1.000000000000e+00
    X0001189  OBJ        1.000000000000e+00
    X0001190  C0000103   1.000000000000e+00
    X0001190  C0000305   1.000000000000e+00
    X0001190  OBJ        1.000000000000e+00
    X0001191  C0000099   1.000000000000e+00
    X0001191  C0000305   1.000000000000e+00
    X0001191  OBJ        1.000000000000e+00
    X0001192  C0000117   1.000000000000e+00
    X0001192  C0000305   1.000000000000e+00
    X0001192  OBJ        1.000000000000e+00
    X0001193  C0000097   1.000000000000e+00
    X0001193  C0000305   1.000000000000e+00
    X0001193  OBJ        1.000000000000e+00
    X0001194  C0000094   1.000000000000e+00
    X0001194  C0000305   1.000000000000e+00
    X0001194  OBJ        1.000000000000e+00
    X0001195  C0000054   1.000000000000e+00
    X0001195  C0000301   1.000000000000e+00
    X0001195  OBJ        1.000000000000e+00
    X0001196  C0000295   1.000000000000e+00
    X0001196  C0000301   1.000000000000e+00
    X0001196  OBJ        1.000000000000e+00
    X0001197  C0000046   1.000000000000e+00
    X0001197  C0000301   1.000000000000e+00
    X0001197  OBJ        1.000000000000e+00
    X0001198  C0000175   1.000000000000e+00
    X0001198  C0000301   1.000000000000e+00
    X0001198  OBJ        1.000000000000e+00
    X0001199  C0000182   1.000000000000e+00
    X0001199  C0000301   1.000000000000e+00
    X0001199  OBJ        1.000000000000e+00
    X0001200  C0000291   1.000000000000e+00
    X0001200  C0000301   1.000000000000e+00
    X0001200  OBJ        1.000000000000e+00
    X0001201  C0000042   1.000000000000e+00
    X0001201  C0000301   1.000000000000e+00
    X0001201  OBJ        1.000000000000e+00
    X0001202  C0000053   1.000000000000e+00
    X0001202  C0000301   1.000000000000e+00
    X0001202  OBJ        1.000000000000e+00
    X0001203  C0000179   1.000000000000e+00
    X0001203  C0000301   1.000000000000e+00
    X0001203  OBJ        1.000000000000e+00
    X0001204  C0000135   1.000000000000e+00
    X0001204  C0000301   1.000000000000e+00
    X0001204  OBJ        1.000000000000e+00
    X0001205  C0000012   1.000000000000e+00
    X0001205  C0000301   1.000000000000e+00
    X0001205  OBJ        1.000000000000e+00
    X0001206  C0000167   1.000000000000e+00
    X0001206  C0000301   1.000000000000e+00
    X0001206  OBJ        1.000000000000e+00
    X0001207  C0000184   1.000000000000e+00
    X0001207  C0000301   1.000000000000e+00
    X0001207  OBJ        1.000000000000e+00
    X0001208  C0000188   1.000000000000e+00
    X0001208  C0000301   1.000000000000e+00
    X0001208  OBJ        1.000000000000e+00
    X0001209  C0000192   1.000000000000e+00
    X0001209  C0000301   1.000000000000e+00
    X0001209  OBJ        1.000000000000e+00
    X0001210  C0000287   1.000000000000e+00
    X0001210  C0000301   1.000000000000e+00
    X0001210  OBJ        1.000000000000e+00
    X0001211  C0000286   1.000000000000e+00
    X0001211  C0000301   1.000000000000e+00
    X0001211  OBJ        1.000000000000e+00
    X0001212  C0000288   1.000000000000e+00
    X0001212  C0000301   1.000000000000e+00
    X0001212  OBJ        1.000000000000e+00
    X0001213  C0000032   1.000000000000e+00
    X0001213  C0000301   1.000000000000e+00
    X0001213  OBJ        1.000000000000e+00
    X0001214  C0000036   1.000000000000e+00
    X0001214  C0000301   1.000000000000e+00
    X0001214  OBJ        1.000000000000e+00
    X0001215  C0000040   1.000000000000e+00
    X0001215  C0000301   1.000000000000e+00
    X0001215  OBJ        1.000000000000e+00
    X0001216  C0000050   1.000000000000e+00
    X0001216  C0000301   1.000000000000e+00
    X0001216  OBJ        1.000000000000e+00
    X0001217  C0000195   1.000000000000e+00
    X0001217  C0000301   1.000000000000e+00
    X0001217  OBJ        1.000000000000e+00
    X0001218  C0000159   1.000000000000e+00
    X0001218  C0000301   1.000000000000e+00
    X0001218  OBJ        1.000000000000e+00
    X0001219  C0000171   1.000000000000e+00
    X0001219  C0000301   1.000000000000e+00
    X0001219  OBJ        1.000000000000e+00
    X0001220  C0000163   1.000000000000e+00
    X0001220  C0000301   1.000000000000e+00
    X0001220  OBJ        1.000000000000e+00
    X0001221  C0000136   1.000000000000e+00
    X0001221  C0000301   1.000000000000e+00
    X0001221  OBJ        1.000000000000e+00
    X0001222  C0000137   1.000000000000e+00
    X0001222  C0000301   1.000000000000e+00
    X0001222  OBJ        1.000000000000e+00
    X0001223  C0000134   1.000000000000e+00
    X0001223  C0000301   1.000000000000e+00
    X0001223  OBJ        1.000000000000e+00
    X0001224  C0000013   1.000000000000e+00
    X0001224  C0000301   1.000000000000e+00
    X0001224  OBJ        1.000000000000e+00
    X0001225  C0000014   1.000000000000e+00
    X0001225  C0000301   1.000000000000e+00
    X0001225  OBJ        1.000000000000e+00
    X0001226  C0000006   1.000000000000e+00
    X0001226  C0000301   1.000000000000e+00
    X0001226  OBJ        1.000000000000e+00
    X0001227  C0000109   1.000000000000e+00
    X0001227  C0000301   1.000000000000e+00
    X0001227  OBJ        1.000000000000e+00
    X0001228  C0000105   1.000000000000e+00
    X0001228  C0000301   1.000000000000e+00
    X0001228  OBJ        1.000000000000e+00
    X0001229  C0000103   1.000000000000e+00
    X0001229  C0000301   1.000000000000e+00
    X0001229  OBJ        1.000000000000e+00
    X0001230  C0000099   1.000000000000e+00
    X0001230  C0000301   1.000000000000e+00
    X0001230  OBJ        1.000000000000e+00
    X0001231  C0000097   1.000000000000e+00
    X0001231  C0000301   1.000000000000e+00
    X0001231  OBJ        1.000000000000e+00
    X0001232  C0000094   1.000000000000e+00
    X0001232  C0000301   1.000000000000e+00
    X0001232  OBJ        1.000000000000e+00
    X0001233  C0000054   1.000000000000e+00
    X0001233  C0000296   1.000000000000e+00
    X0001233  OBJ        1.000000000000e+00
    X0001234  C0000182   1.000000000000e+00
    X0001234  C0000296   1.000000000000e+00
    X0001234  OBJ        1.000000000000e+00
    X0001235  C0000053   1.000000000000e+00
    X0001235  C0000296   1.000000000000e+00
    X0001235  OBJ        1.000000000000e+00
    X0001236  C0000184   1.000000000000e+00
    X0001236  C0000296   1.000000000000e+00
    X0001236  OBJ        1.000000000000e+00
    X0001237  C0000188   1.000000000000e+00
    X0001237  C0000296   1.000000000000e+00
    X0001237  OBJ        1.000000000000e+00
    X0001238  C0000192   1.000000000000e+00
    X0001238  C0000296   1.000000000000e+00
    X0001238  OBJ        1.000000000000e+00
    X0001239  C0000287   1.000000000000e+00
    X0001239  C0000296   1.000000000000e+00
    X0001239  OBJ        1.000000000000e+00
    X0001240  C0000286   1.000000000000e+00
    X0001240  C0000296   1.000000000000e+00
    X0001240  OBJ        1.000000000000e+00
    X0001241  C0000050   1.000000000000e+00
    X0001241  C0000296   1.000000000000e+00
    X0001241  OBJ        1.000000000000e+00
    X0001242  C0000195   1.000000000000e+00
    X0001242  C0000296   1.000000000000e+00
    X0001242  OBJ        1.000000000000e+00
    X0001243  C0000136   1.000000000000e+00
    X0001243  C0000296   1.000000000000e+00
    X0001243  OBJ        1.000000000000e+00
    X0001244  C0000137   1.000000000000e+00
    X0001244  C0000296   1.000000000000e+00
    X0001244  OBJ        1.000000000000e+00
    X0001245  C0000006   1.000000000000e+00
    X0001245  C0000296   1.000000000000e+00
    X0001245  OBJ        1.000000000000e+00
    X0001246  C0000094   1.000000000000e+00
    X0001246  C0000296   1.000000000000e+00
    X0001246  OBJ        1.000000000000e+00
    X0001247  C0000054   1.000000000000e+00
    X0001247  C0000289   1.000000000000e+00
    X0001247  OBJ        1.000000000000e+00
    X0001248  C0000192   1.000000000000e+00
    X0001248  C0000289   1.000000000000e+00
    X0001248  OBJ        1.000000000000e+00
    X0001249  C0000195   1.000000000000e+00
    X0001249  C0000289   1.000000000000e+00
    X0001249  OBJ        1.000000000000e+00
    X0001250  C0000154   1.000000000000e+00
    X0001250  C0000247   1.000000000000e+00
    X0001250  OBJ        1.000000000000e+00
    X0001251  C0000154   1.000000000000e+00
    X0001251  C0000251   1.000000000000e+00
    X0001251  OBJ        1.000000000000e+00
    X0001252  C0000154   1.000000000000e+00
    X0001252  C0000255   1.000000000000e+00
    X0001252  OBJ        1.000000000000e+00
    X0001253  C0000154   1.000000000000e+00
    X0001253  C0000259   1.000000000000e+00
    X0001253  OBJ        1.000000000000e+00
    X0001254  C0000154   1.000000000000e+00
    X0001254  C0000263   1.000000000000e+00
    X0001254  OBJ        1.000000000000e+00
    X0001255  C0000154   1.000000000000e+00
    X0001255  C0000267   1.000000000000e+00
    X0001255  OBJ        1.000000000000e+00
    X0001256  C0000154   1.000000000000e+00
    X0001256  C0000271   1.000000000000e+00
    X0001256  OBJ        1.000000000000e+00
    X0001257  C0000154   1.000000000000e+00
    X0001257  C0000275   1.000000000000e+00
    X0001257  OBJ        1.000000000000e+00
    X0001258  C0000154   1.000000000000e+00
    X0001258  C0000279   1.000000000000e+00
    X0001258  OBJ        1.000000000000e+00
    X0001259  C0000154   1.000000000000e+00
    X0001259  C0000281   1.000000000000e+00
    X0001259  OBJ        1.000000000000e+00
    X0001260  C0000154   1.000000000000e+00
    X0001260  C0000181   1.000000000000e+00
    X0001260  OBJ        1.000000000000e+00
    X0001261  C0000154   1.000000000000e+00
    X0001261  C0000186   1.000000000000e+00
    X0001261  OBJ        1.000000000000e+00
    X0001262  C0000154   1.000000000000e+00
    X0001262  C0000190   1.000000000000e+00
    X0001262  OBJ        1.000000000000e+00
    X0001263  C0000154   1.000000000000e+00
    X0001263  C0000194   1.000000000000e+00
    X0001263  OBJ        1.000000000000e+00
    X0001264  C0000154   1.000000000000e+00
    X0001264  C0000197   1.000000000000e+00
    X0001264  OBJ        1.000000000000e+00
    X0001265  C0000166   1.000000000000e+00
    X0001265  C0000259   1.000000000000e+00
    X0001265  OBJ        1.000000000000e+00
    X0001266  C0000166   1.000000000000e+00
    X0001266  C0000263   1.000000000000e+00
    X0001266  OBJ        1.000000000000e+00
    X0001267  C0000166   1.000000000000e+00
    X0001267  C0000267   1.000000000000e+00
    X0001267  OBJ        1.000000000000e+00
    X0001268  C0000166   1.000000000000e+00
    X0001268  C0000271   1.000000000000e+00
    X0001268  OBJ        1.000000000000e+00
    X0001269  C0000166   1.000000000000e+00
    X0001269  C0000275   1.000000000000e+00
    X0001269  OBJ        1.000000000000e+00
    X0001270  C0000166   1.000000000000e+00
    X0001270  C0000279   1.000000000000e+00
    X0001270  OBJ        1.000000000000e+00
    X0001271  C0000166   1.000000000000e+00
    X0001271  C0000281   1.000000000000e+00
    X0001271  OBJ        1.000000000000e+00
    X0001272  C0000166   1.000000000000e+00
    X0001272  C0000194   1.000000000000e+00
    X0001272  OBJ        1.000000000000e+00
    X0001273  C0000166   1.000000000000e+00
    X0001273  C0000197   1.000000000000e+00
    X0001273  OBJ        1.000000000000e+00
    X0001274  C0000054   1.000000000000e+00
    X0001274  C0000180   1.000000000000e+00
    X0001274  OBJ        1.000000000000e+00
    X0001275  C0000046   1.000000000000e+00
    X0001275  C0000180   1.000000000000e+00
    X0001275  OBJ        1.000000000000e+00
    X0001276  C0000180   1.000000000000e+00
    X0001276  C0000182   1.000000000000e+00
    X0001276  OBJ        1.000000000000e+00
    X0001277  C0000053   1.000000000000e+00
    X0001277  C0000180   1.000000000000e+00
    X0001277  OBJ        1.000000000000e+00
    X0001278  C0000179   1.000000000000e+00
    X0001278  C0000180   1.000000000000e+00
    X0001278  OBJ        1.000000000000e+00
    X0001279  C0000135   1.000000000000e+00
    X0001279  C0000180   1.000000000000e+00
    X0001279  OBJ        1.000000000000e+00
    X0001280  C0000180   1.000000000000e+00
    X0001280  C0000184   1.000000000000e+00
    X0001280  OBJ        1.000000000000e+00
    X0001281  C0000180   1.000000000000e+00
    X0001281  C0000188   1.000000000000e+00
    X0001281  OBJ        1.000000000000e+00
    X0001282  C0000180   1.000000000000e+00
    X0001282  C0000192   1.000000000000e+00
    X0001282  OBJ        1.000000000000e+00
    X0001283  C0000180   1.000000000000e+00
    X0001283  C0000287   1.000000000000e+00
    X0001283  OBJ        1.000000000000e+00
    X0001284  C0000180   1.000000000000e+00
    X0001284  C0000286   1.000000000000e+00
    X0001284  OBJ        1.000000000000e+00
    X0001285  C0000180   1.000000000000e+00
    X0001285  C0000288   1.000000000000e+00
    X0001285  OBJ        1.000000000000e+00
    X0001286  C0000050   1.000000000000e+00
    X0001286  C0000180   1.000000000000e+00
    X0001286  OBJ        1.000000000000e+00
    X0001287  C0000180   1.000000000000e+00
    X0001287  C0000195   1.000000000000e+00
    X0001287  OBJ        1.000000000000e+00
    X0001288  C0000136   1.000000000000e+00
    X0001288  C0000180   1.000000000000e+00
    X0001288  OBJ        1.000000000000e+00
    X0001289  C0000137   1.000000000000e+00
    X0001289  C0000180   1.000000000000e+00
    X0001289  OBJ        1.000000000000e+00
    X0001290  C0000014   1.000000000000e+00
    X0001290  C0000180   1.000000000000e+00
    X0001290  OBJ        1.000000000000e+00
    X0001291  C0000006   1.000000000000e+00
    X0001291  C0000180   1.000000000000e+00
    X0001291  OBJ        1.000000000000e+00
    X0001292  C0000097   1.000000000000e+00
    X0001292  C0000180   1.000000000000e+00
    X0001292  OBJ        1.000000000000e+00
    X0001293  C0000094   1.000000000000e+00
    X0001293  C0000180   1.000000000000e+00
    X0001293  OBJ        1.000000000000e+00
    X0001294  C0000183   1.000000000000e+00
    X0001294  C0000275   1.000000000000e+00
    X0001294  OBJ        1.000000000000e+00
    X0001295  C0000183   1.000000000000e+00
    X0001295  C0000279   1.000000000000e+00
    X0001295  OBJ        1.000000000000e+00
    X0001296  C0000183   1.000000000000e+00
    X0001296  C0000281   1.000000000000e+00
    X0001296  OBJ        1.000000000000e+00
    X0001297  C0000054   1.000000000000e+00
    X0001297  C0000185   1.000000000000e+00
    X0001297  OBJ        1.000000000000e+00
    X0001298  C0000182   1.000000000000e+00
    X0001298  C0000185   1.000000000000e+00
    X0001298  OBJ        1.000000000000e+00
    X0001299  C0000053   1.000000000000e+00
    X0001299  C0000185   1.000000000000e+00
    X0001299  OBJ        1.000000000000e+00
    X0001300  C0000184   1.000000000000e+00
    X0001300  C0000185   1.000000000000e+00
    X0001300  OBJ        1.000000000000e+00
    X0001301  C0000185   1.000000000000e+00
    X0001301  C0000188   1.000000000000e+00
    X0001301  OBJ        1.000000000000e+00
    X0001302  C0000185   1.000000000000e+00
    X0001302  C0000192   1.000000000000e+00
    X0001302  OBJ        1.000000000000e+00
    X0001303  C0000185   1.000000000000e+00
    X0001303  C0000287   1.000000000000e+00
    X0001303  OBJ        1.000000000000e+00
    X0001304  C0000185   1.000000000000e+00
    X0001304  C0000286   1.000000000000e+00
    X0001304  OBJ        1.000000000000e+00
    X0001305  C0000050   1.000000000000e+00
    X0001305  C0000185   1.000000000000e+00
    X0001305  OBJ        1.000000000000e+00
    X0001306  C0000185   1.000000000000e+00
    X0001306  C0000195   1.000000000000e+00
    X0001306  OBJ        1.000000000000e+00
    X0001307  C0000136   1.000000000000e+00
    X0001307  C0000185   1.000000000000e+00
    X0001307  OBJ        1.000000000000e+00
    X0001308  C0000137   1.000000000000e+00
    X0001308  C0000185   1.000000000000e+00
    X0001308  OBJ        1.000000000000e+00
    X0001309  C0000006   1.000000000000e+00
    X0001309  C0000185   1.000000000000e+00
    X0001309  OBJ        1.000000000000e+00
    X0001310  C0000094   1.000000000000e+00
    X0001310  C0000185   1.000000000000e+00
    X0001310  OBJ        1.000000000000e+00
    X0001311  C0000187   1.000000000000e+00
    X0001311  C0000279   1.000000000000e+00
    X0001311  OBJ        1.000000000000e+00
    X0001312  C0000187   1.000000000000e+00
    X0001312  C0000281   1.000000000000e+00
    X0001312  OBJ        1.000000000000e+00
    X0001313  C0000054   1.000000000000e+00
    X0001313  C0000189   1.000000000000e+00
    X0001313  OBJ        1.000000000000e+00
    X0001314  C0000053   1.000000000000e+00
    X0001314  C0000189   1.000000000000e+00
    X0001314  OBJ        1.000000000000e+00
    X0001315  C0000188   1.000000000000e+00
    X0001315  C0000189   1.000000000000e+00
    X0001315  OBJ        1.000000000000e+00
    X0001316  C0000189   1.000000000000e+00
    X0001316  C0000192   1.000000000000e+00
    X0001316  OBJ        1.000000000000e+00
    X0001317  C0000189   1.000000000000e+00
    X0001317  C0000286   1.000000000000e+00
    X0001317  OBJ        1.000000000000e+00
    X0001318  C0000189   1.000000000000e+00
    X0001318  C0000195   1.000000000000e+00
    X0001318  OBJ        1.000000000000e+00
    X0001319  C0000137   1.000000000000e+00
    X0001319  C0000189   1.000000000000e+00
    X0001319  OBJ        1.000000000000e+00
    X0001320  C0000191   1.000000000000e+00
    X0001320  C0000281   1.000000000000e+00
    X0001320  OBJ        1.000000000000e+00
    X0001321  C0000054   1.000000000000e+00
    X0001321  C0000193   1.000000000000e+00
    X0001321  OBJ        1.000000000000e+00
    X0001322  C0000192   1.000000000000e+00
    X0001322  C0000193   1.000000000000e+00
    X0001322  OBJ        1.000000000000e+00
    X0001323  C0000193   1.000000000000e+00
    X0001323  C0000195   1.000000000000e+00
    X0001323  OBJ        1.000000000000e+00
    X0001324  C0000195   1.000000000000e+00
    X0001324  C0000196   1.000000000000e+00
    X0001324  OBJ        1.000000000000e+00
    X0001325  C0000009   1.000000000000e+00
    X0001325  C0000054   1.000000000000e+00
    X0001325  OBJ        1.000000000000e+00
    X0001326  C0000009   1.000000000000e+00
    X0001326  C0000046   1.000000000000e+00
    X0001326  OBJ        1.000000000000e+00
    X0001327  C0000009   1.000000000000e+00
    X0001327  C0000182   1.000000000000e+00
    X0001327  OBJ        1.000000000000e+00
    X0001328  C0000009   1.000000000000e+00
    X0001328  C0000053   1.000000000000e+00
    X0001328  OBJ        1.000000000000e+00
    X0001329  C0000009   1.000000000000e+00
    X0001329  C0000179   1.000000000000e+00
    X0001329  OBJ        1.000000000000e+00
    X0001330  C0000009   1.000000000000e+00
    X0001330  C0000135   1.000000000000e+00
    X0001330  OBJ        1.000000000000e+00
    X0001331  C0000009   1.000000000000e+00
    X0001331  C0000184   1.000000000000e+00
    X0001331  OBJ        1.000000000000e+00
    X0001332  C0000009   1.000000000000e+00
    X0001332  C0000188   1.000000000000e+00
    X0001332  OBJ        1.000000000000e+00
    X0001333  C0000009   1.000000000000e+00
    X0001333  C0000192   1.000000000000e+00
    X0001333  OBJ        1.000000000000e+00
    X0001334  C0000009   1.000000000000e+00
    X0001334  C0000287   1.000000000000e+00
    X0001334  OBJ        1.000000000000e+00
    X0001335  C0000009   1.000000000000e+00
    X0001335  C0000286   1.000000000000e+00
    X0001335  OBJ        1.000000000000e+00
    X0001336  C0000009   1.000000000000e+00
    X0001336  C0000288   1.000000000000e+00
    X0001336  OBJ        1.000000000000e+00
    X0001337  C0000009   1.000000000000e+00
    X0001337  C0000050   1.000000000000e+00
    X0001337  OBJ        1.000000000000e+00
    X0001338  C0000009   1.000000000000e+00
    X0001338  C0000195   1.000000000000e+00
    X0001338  OBJ        1.000000000000e+00
    X0001339  C0000009   1.000000000000e+00
    X0001339  C0000136   1.000000000000e+00
    X0001339  OBJ        1.000000000000e+00
    X0001340  C0000009   1.000000000000e+00
    X0001340  C0000137   1.000000000000e+00
    X0001340  OBJ        1.000000000000e+00
    X0001341  C0000009   1.000000000000e+00
    X0001341  C0000014   1.000000000000e+00
    X0001341  OBJ        1.000000000000e+00
    X0001342  C0000006   1.000000000000e+00
    X0001342  C0000009   1.000000000000e+00
    X0001342  OBJ        1.000000000000e+00
    X0001343  C0000009   1.000000000000e+00
    X0001343  C0000097   1.000000000000e+00
    X0001343  OBJ        1.000000000000e+00
    X0001344  C0000009   1.000000000000e+00
    X0001344  C0000094   1.000000000000e+00
    X0001344  OBJ        1.000000000000e+00
    X0001345  C0000085   1.000000000000e+00
    X0001345  C0000086   1.000000000000e+00
    X0001345  OBJ        1.000000000000e+00
    X0001346  C0000066   1.000000000000e+00
    X0001346  C0000086   1.000000000000e+00
    X0001346  OBJ        1.000000000000e+00
    X0001347  C0000064   1.000000000000e+00
    X0001347  C0000086   1.000000000000e+00
    X0001347  OBJ        1.000000000000e+00
    X0001348  C0000086   1.000000000000e+00
    X0001348  C0000096   1.000000000000e+00
    X0001348  OBJ        1.000000000000e+00
    X0001349  C0000086   1.000000000000e+00
    X0001349  C0000093   1.000000000000e+00
    X0001349  OBJ        1.000000000000e+00
    X0001350  C0000086   1.000000000000e+00
    X0001350  C0000091   1.000000000000e+00
    X0001350  OBJ        1.000000000000e+00
    X0001351  C0000065   1.000000000000e+00
    X0001351  C0000275   1.000000000000e+00
    X0001351  OBJ        1.000000000000e+00
    X0001352  C0000065   1.000000000000e+00
    X0001352  C0000279   1.000000000000e+00
    X0001352  OBJ        1.000000000000e+00
    X0001353  C0000065   1.000000000000e+00
    X0001353  C0000281   1.000000000000e+00
    X0001353  OBJ        1.000000000000e+00
    X0001354  C0000063   1.000000000000e+00
    X0001354  C0000279   1.000000000000e+00
    X0001354  OBJ        1.000000000000e+00
    X0001355  C0000063   1.000000000000e+00
    X0001355  C0000281   1.000000000000e+00
    X0001355  OBJ        1.000000000000e+00
    X0001356  C0000061   1.000000000000e+00
    X0001356  C0000064   1.000000000000e+00
    X0001356  OBJ        1.000000000000e+00
    X0001357  C0000061   1.000000000000e+00
    X0001357  C0000091   1.000000000000e+00
    X0001357  OBJ        1.000000000000e+00
    X0001358  C0000290   1.000000000000e+00
    X0001358  C0000303   1.000000000000e+00
    X0001358  OBJ        1.000000000000e+00
    X0001359  C0000300   1.000000000000e+00
    X0001359  C0000303   1.000000000000e+00
    X0001359  OBJ        1.000000000000e+00
    X0001360  C0000284   1.000000000000e+00
    X0001360  C0000302   1.000000000000e+00
    X0001360  OBJ        1.000000000000e+00
    X0001361  C0000284   1.000000000000e+00
    X0001361  C0000290   1.000000000000e+00
    X0001361  OBJ        1.000000000000e+00
    X0001362  C0000284   1.000000000000e+00
    X0001362  C0000300   1.000000000000e+00
    X0001362  OBJ        1.000000000000e+00
    X0001363  C0000293   1.000000000000e+00
    X0001363  C0000297   1.000000000000e+00
    X0001363  OBJ        1.000000000000e+00
    X0001364  C0000054   1.000000000000e+00
    X0001364  C0000292   1.000000000000e+00
    X0001364  OBJ        1.000000000000e+00
    X0001365  C0000053   1.000000000000e+00
    X0001365  C0000292   1.000000000000e+00
    X0001365  OBJ        1.000000000000e+00
    X0001366  C0000184   1.000000000000e+00
    X0001366  C0000292   1.000000000000e+00
    X0001366  OBJ        1.000000000000e+00
    X0001367  C0000188   1.000000000000e+00
    X0001367  C0000292   1.000000000000e+00
    X0001367  OBJ        1.000000000000e+00
    X0001368  C0000192   1.000000000000e+00
    X0001368  C0000292   1.000000000000e+00
    X0001368  OBJ        1.000000000000e+00
    X0001369  C0000287   1.000000000000e+00
    X0001369  C0000292   1.000000000000e+00
    X0001369  OBJ        1.000000000000e+00
    X0001370  C0000286   1.000000000000e+00
    X0001370  C0000292   1.000000000000e+00
    X0001370  OBJ        1.000000000000e+00
    X0001371  C0000050   1.000000000000e+00
    X0001371  C0000292   1.000000000000e+00
    X0001371  OBJ        1.000000000000e+00
    X0001372  C0000195   1.000000000000e+00
    X0001372  C0000292   1.000000000000e+00
    X0001372  OBJ        1.000000000000e+00
    X0001373  C0000136   1.000000000000e+00
    X0001373  C0000292   1.000000000000e+00
    X0001373  OBJ        1.000000000000e+00
    X0001374  C0000137   1.000000000000e+00
    X0001374  C0000292   1.000000000000e+00
    X0001374  OBJ        1.000000000000e+00
    X0001375  C0000006   1.000000000000e+00
    X0001375  C0000292   1.000000000000e+00
    X0001375  OBJ        1.000000000000e+00
    X0001376  C0000094   1.000000000000e+00
    X0001376  C0000292   1.000000000000e+00
    X0001376  OBJ        1.000000000000e+00
    X0001377  C0000054   1.000000000000e+00
    X0001377  C0000299   1.000000000000e+00
    X0001377  OBJ        1.000000000000e+00
    X0001378  C0000295   1.000000000000e+00
    X0001378  C0000299   1.000000000000e+00
    X0001378  OBJ        1.000000000000e+00
    X0001379  C0000046   1.000000000000e+00
    X0001379  C0000299   1.000000000000e+00
    X0001379  OBJ        1.000000000000e+00
    X0001380  C0000175   1.000000000000e+00
    X0001380  C0000299   1.000000000000e+00
    X0001380  OBJ        1.000000000000e+00
    X0001381  C0000182   1.000000000000e+00
    X0001381  C0000299   1.000000000000e+00
    X0001381  OBJ        1.000000000000e+00
    X0001382  C0000291   1.000000000000e+00
    X0001382  C0000299   1.000000000000e+00
    X0001382  OBJ        1.000000000000e+00
    X0001383  C0000042   1.000000000000e+00
    X0001383  C0000299   1.000000000000e+00
    X0001383  OBJ        1.000000000000e+00
    X0001384  C0000053   1.000000000000e+00
    X0001384  C0000299   1.000000000000e+00
    X0001384  OBJ        1.000000000000e+00
    X0001385  C0000179   1.000000000000e+00
    X0001385  C0000299   1.000000000000e+00
    X0001385  OBJ        1.000000000000e+00
    X0001386  C0000135   1.000000000000e+00
    X0001386  C0000299   1.000000000000e+00
    X0001386  OBJ        1.000000000000e+00
    X0001387  C0000167   1.000000000000e+00
    X0001387  C0000299   1.000000000000e+00
    X0001387  OBJ        1.000000000000e+00
    X0001388  C0000184   1.000000000000e+00
    X0001388  C0000299   1.000000000000e+00
    X0001388  OBJ        1.000000000000e+00
    X0001389  C0000188   1.000000000000e+00
    X0001389  C0000299   1.000000000000e+00
    X0001389  OBJ        1.000000000000e+00
    X0001390  C0000192   1.000000000000e+00
    X0001390  C0000299   1.000000000000e+00
    X0001390  OBJ        1.000000000000e+00
    X0001391  C0000287   1.000000000000e+00
    X0001391  C0000299   1.000000000000e+00
    X0001391  OBJ        1.000000000000e+00
    X0001392  C0000286   1.000000000000e+00
    X0001392  C0000299   1.000000000000e+00
    X0001392  OBJ        1.000000000000e+00
    X0001393  C0000288   1.000000000000e+00
    X0001393  C0000299   1.000000000000e+00
    X0001393  OBJ        1.000000000000e+00
    X0001394  C0000036   1.000000000000e+00
    X0001394  C0000299   1.000000000000e+00
    X0001394  OBJ        1.000000000000e+00
    X0001395  C0000040   1.000000000000e+00
    X0001395  C0000299   1.000000000000e+00
    X0001395  OBJ        1.000000000000e+00
    X0001396  C0000050   1.000000000000e+00
    X0001396  C0000299   1.000000000000e+00
    X0001396  OBJ        1.000000000000e+00
    X0001397  C0000195   1.000000000000e+00
    X0001397  C0000299   1.000000000000e+00
    X0001397  OBJ        1.000000000000e+00
    X0001398  C0000171   1.000000000000e+00
    X0001398  C0000299   1.000000000000e+00
    X0001398  OBJ        1.000000000000e+00
    X0001399  C0000136   1.000000000000e+00
    X0001399  C0000299   1.000000000000e+00
    X0001399  OBJ        1.000000000000e+00
    X0001400  C0000137   1.000000000000e+00
    X0001400  C0000299   1.000000000000e+00
    X0001400  OBJ        1.000000000000e+00
    X0001401  C0000134   1.000000000000e+00
    X0001401  C0000299   1.000000000000e+00
    X0001401  OBJ        1.000000000000e+00
    X0001402  C0000013   1.000000000000e+00
    X0001402  C0000299   1.000000000000e+00
    X0001402  OBJ        1.000000000000e+00
    X0001403  C0000014   1.000000000000e+00
    X0001403  C0000299   1.000000000000e+00
    X0001403  OBJ        1.000000000000e+00
    X0001404  C0000006   1.000000000000e+00
    X0001404  C0000299   1.000000000000e+00
    X0001404  OBJ        1.000000000000e+00
    X0001405  C0000105   1.000000000000e+00
    X0001405  C0000299   1.000000000000e+00
    X0001405  OBJ        1.000000000000e+00
    X0001406  C0000103   1.000000000000e+00
    X0001406  C0000299   1.000000000000e+00
    X0001406  OBJ        1.000000000000e+00
    X0001407  C0000099   1.000000000000e+00
    X0001407  C0000299   1.000000000000e+00
    X0001407  OBJ        1.000000000000e+00
    X0001408  C0000097   1.000000000000e+00
    X0001408  C0000299   1.000000000000e+00
    X0001408  OBJ        1.000000000000e+00
    X0001409  C0000094   1.000000000000e+00
    X0001409  C0000299   1.000000000000e+00
    X0001409  OBJ        1.000000000000e+00
    X0001410  C0000020   1.000000000000e+00
    X0001410  C0000054   1.000000000000e+00
    X0001410  OBJ        1.000000000000e+00
    X0001411  C0000020   1.000000000000e+00
    X0001411  C0000295   1.000000000000e+00
    X0001411  OBJ        1.000000000000e+00
    X0001412  C0000020   1.000000000000e+00
    X0001412  C0000046   1.000000000000e+00
    X0001412  OBJ        1.000000000000e+00
    X0001413  C0000020   1.000000000000e+00
    X0001413  C0000026   1.000000000000e+00
    X0001413  OBJ        1.000000000000e+00
    X0001414  C0000020   1.000000000000e+00
    X0001414  C0000175   1.000000000000e+00
    X0001414  OBJ        1.000000000000e+00
    X0001415  C0000020   1.000000000000e+00
    X0001415  C0000182   1.000000000000e+00
    X0001415  OBJ        1.000000000000e+00
    X0001416  C0000020   1.000000000000e+00
    X0001416  C0000291   1.000000000000e+00
    X0001416  OBJ        1.000000000000e+00
    X0001417  C0000020   1.000000000000e+00
    X0001417  C0000042   1.000000000000e+00
    X0001417  OBJ        1.000000000000e+00
    X0001418  C0000020   1.000000000000e+00
    X0001418  C0000053   1.000000000000e+00
    X0001418  OBJ        1.000000000000e+00
    X0001419  C0000020   1.000000000000e+00
    X0001419  C0000146   1.000000000000e+00
    X0001419  OBJ        1.000000000000e+00
    X0001420  C0000020   1.000000000000e+00
    X0001420  C0000179   1.000000000000e+00
    X0001420  OBJ        1.000000000000e+00
    X0001421  C0000020   1.000000000000e+00
    X0001421  C0000128   1.000000000000e+00
    X0001421  OBJ        1.000000000000e+00
    X0001422  C0000020   1.000000000000e+00
    X0001422  C0000135   1.000000000000e+00
    X0001422  OBJ        1.000000000000e+00
    X0001423  C0000020   1.000000000000e+00
    X0001423  C0000111   1.000000000000e+00
    X0001423  OBJ        1.000000000000e+00
    X0001424  C0000012   1.000000000000e+00
    X0001424  C0000020   1.000000000000e+00
    X0001424  OBJ        1.000000000000e+00
    X0001425  C0000020   1.000000000000e+00
    X0001425  C0000155   1.000000000000e+00
    X0001425  OBJ        1.000000000000e+00
    X0001426  C0000020   1.000000000000e+00
    X0001426  C0000167   1.000000000000e+00
    X0001426  OBJ        1.000000000000e+00
    X0001427  C0000020   1.000000000000e+00
    X0001427  C0000184   1.000000000000e+00
    X0001427  OBJ        1.000000000000e+00
    X0001428  C0000020   1.000000000000e+00
    X0001428  C0000188   1.000000000000e+00
    X0001428  OBJ        1.000000000000e+00
    X0001429  C0000020   1.000000000000e+00
    X0001429  C0000192   1.000000000000e+00
    X0001429  OBJ        1.000000000000e+00
    X0001430  C0000020   1.000000000000e+00
    X0001430  C0000304   1.000000000000e+00
    X0001430  OBJ        1.000000000000e+00
    X0001431  C0000020   1.000000000000e+00
    X0001431  C0000287   1.000000000000e+00
    X0001431  OBJ        1.000000000000e+00
    X0001432  C0000020   1.000000000000e+00
    X0001432  C0000286   1.000000000000e+00
    X0001432  OBJ        1.000000000000e+00
    X0001433  C0000020   1.000000000000e+00
    X0001433  C0000298   1.000000000000e+00
    X0001433  OBJ        1.000000000000e+00
    X0001434  C0000020   1.000000000000e+00
    X0001434  C0000288   1.000000000000e+00
    X0001434  OBJ        1.000000000000e+00
    X0001435  C0000020   1.000000000000e+00
    X0001435  C0000032   1.000000000000e+00
    X0001435  OBJ        1.000000000000e+00
    X0001436  C0000020   1.000000000000e+00
    X0001436  C0000036   1.000000000000e+00
    X0001436  OBJ        1.000000000000e+00
    X0001437  C0000020   1.000000000000e+00
    X0001437  C0000040   1.000000000000e+00
    X0001437  OBJ        1.000000000000e+00
    X0001438  C0000020   1.000000000000e+00
    X0001438  C0000030   1.000000000000e+00
    X0001438  OBJ        1.000000000000e+00
    X0001439  C0000020   1.000000000000e+00
    X0001439  C0000050   1.000000000000e+00
    X0001439  OBJ        1.000000000000e+00
    X0001440  C0000020   1.000000000000e+00
    X0001440  C0000151   1.000000000000e+00
    X0001440  OBJ        1.000000000000e+00
    X0001441  C0000020   1.000000000000e+00
    X0001441  C0000195   1.000000000000e+00
    X0001441  OBJ        1.000000000000e+00
    X0001442  C0000020   1.000000000000e+00
    X0001442  C0000159   1.000000000000e+00
    X0001442  OBJ        1.000000000000e+00
    X0001443  C0000020   1.000000000000e+00
    X0001443  C0000171   1.000000000000e+00
    X0001443  OBJ        1.000000000000e+00
    X0001444  C0000020   1.000000000000e+00
    X0001444  C0000163   1.000000000000e+00
    X0001444  OBJ        1.000000000000e+00
    X0001445  C0000020   1.000000000000e+00
    X0001445  C0000136   1.000000000000e+00
    X0001445  OBJ        1.000000000000e+00
    X0001446  C0000020   1.000000000000e+00
    X0001446  C0000137   1.000000000000e+00
    X0001446  OBJ        1.000000000000e+00
    X0001447  C0000020   1.000000000000e+00
    X0001447  C0000134   1.000000000000e+00
    X0001447  OBJ        1.000000000000e+00
    X0001448  C0000013   1.000000000000e+00
    X0001448  C0000020   1.000000000000e+00
    X0001448  OBJ        1.000000000000e+00
    X0001449  C0000014   1.000000000000e+00
    X0001449  C0000020   1.000000000000e+00
    X0001449  OBJ        1.000000000000e+00
    X0001450  C0000016   1.000000000000e+00
    X0001450  C0000020   1.000000000000e+00
    X0001450  OBJ        1.000000000000e+00
    X0001451  C0000006   1.000000000000e+00
    X0001451  C0000020   1.000000000000e+00
    X0001451  OBJ        1.000000000000e+00
    X0001452  C0000020   1.000000000000e+00
    X0001452  C0000109   1.000000000000e+00
    X0001452  OBJ        1.000000000000e+00
    X0001453  C0000020   1.000000000000e+00
    X0001453  C0000105   1.000000000000e+00
    X0001453  OBJ        1.000000000000e+00
    X0001454  C0000020   1.000000000000e+00
    X0001454  C0000103   1.000000000000e+00
    X0001454  OBJ        1.000000000000e+00
    X0001455  C0000020   1.000000000000e+00
    X0001455  C0000099   1.000000000000e+00
    X0001455  OBJ        1.000000000000e+00
    X0001456  C0000020   1.000000000000e+00
    X0001456  C0000121   1.000000000000e+00
    X0001456  OBJ        1.000000000000e+00
    X0001457  C0000020   1.000000000000e+00
    X0001457  C0000117   1.000000000000e+00
    X0001457  OBJ        1.000000000000e+00
    X0001458  C0000020   1.000000000000e+00
    X0001458  C0000097   1.000000000000e+00
    X0001458  OBJ        1.000000000000e+00
    X0001459  C0000020   1.000000000000e+00
    X0001459  C0000094   1.000000000000e+00
    X0001459  OBJ        1.000000000000e+00
    X0001460  C0000023   1.000000000000e+00
    X0001460  C0000054   1.000000000000e+00
    X0001460  OBJ        1.000000000000e+00
    X0001461  C0000023   1.000000000000e+00
    X0001461  C0000295   1.000000000000e+00
    X0001461  OBJ        1.000000000000e+00
    X0001462  C0000023   1.000000000000e+00
    X0001462  C0000046   1.000000000000e+00
    X0001462  OBJ        1.000000000000e+00
    X0001463  C0000023   1.000000000000e+00
    X0001463  C0000026   1.000000000000e+00
    X0001463  OBJ        1.000000000000e+00
    X0001464  C0000023   1.000000000000e+00
    X0001464  C0000175   1.000000000000e+00
    X0001464  OBJ        1.000000000000e+00
    X0001465  C0000023   1.000000000000e+00
    X0001465  C0000182   1.000000000000e+00
    X0001465  OBJ        1.000000000000e+00
    X0001466  C0000023   1.000000000000e+00
    X0001466  C0000291   1.000000000000e+00
    X0001466  OBJ        1.000000000000e+00
    X0001467  C0000023   1.000000000000e+00
    X0001467  C0000042   1.000000000000e+00
    X0001467  OBJ        1.000000000000e+00
    X0001468  C0000023   1.000000000000e+00
    X0001468  C0000053   1.000000000000e+00
    X0001468  OBJ        1.000000000000e+00
    X0001469  C0000023   1.000000000000e+00
    X0001469  C0000179   1.000000000000e+00
    X0001469  OBJ        1.000000000000e+00
    X0001470  C0000023   1.000000000000e+00
    X0001470  C0000128   1.000000000000e+00
    X0001470  OBJ        1.000000000000e+00
    X0001471  C0000023   1.000000000000e+00
    X0001471  C0000135   1.000000000000e+00
    X0001471  OBJ        1.000000000000e+00
    X0001472  C0000023   1.000000000000e+00
    X0001472  C0000111   1.000000000000e+00
    X0001472  OBJ        1.000000000000e+00
    X0001473  C0000012   1.000000000000e+00
    X0001473  C0000023   1.000000000000e+00
    X0001473  OBJ        1.000000000000e+00
    X0001474  C0000023   1.000000000000e+00
    X0001474  C0000155   1.000000000000e+00
    X0001474  OBJ        1.000000000000e+00
    X0001475  C0000023   1.000000000000e+00
    X0001475  C0000167   1.000000000000e+00
    X0001475  OBJ        1.000000000000e+00
    X0001476  C0000023   1.000000000000e+00
    X0001476  C0000184   1.000000000000e+00
    X0001476  OBJ        1.000000000000e+00
    X0001477  C0000023   1.000000000000e+00
    X0001477  C0000188   1.000000000000e+00
    X0001477  OBJ        1.000000000000e+00
    X0001478  C0000023   1.000000000000e+00
    X0001478  C0000192   1.000000000000e+00
    X0001478  OBJ        1.000000000000e+00
    X0001479  C0000023   1.000000000000e+00
    X0001479  C0000287   1.000000000000e+00
    X0001479  OBJ        1.000000000000e+00
    X0001480  C0000023   1.000000000000e+00
    X0001480  C0000286   1.000000000000e+00
    X0001480  OBJ        1.000000000000e+00
    X0001481  C0000023   1.000000000000e+00
    X0001481  C0000298   1.000000000000e+00
    X0001481  OBJ        1.000000000000e+00
    X0001482  C0000023   1.000000000000e+00
    X0001482  C0000288   1.000000000000e+00
    X0001482  OBJ        1.000000000000e+00
    X0001483  C0000023   1.000000000000e+00
    X0001483  C0000032   1.000000000000e+00
    X0001483  OBJ        1.000000000000e+00
    X0001484  C0000023   1.000000000000e+00
    X0001484  C0000036   1.000000000000e+00
    X0001484  OBJ        1.000000000000e+00
    X0001485  C0000023   1.000000000000e+00
    X0001485  C0000040   1.000000000000e+00
    X0001485  OBJ        1.000000000000e+00
    X0001486  C0000023   1.000000000000e+00
    X0001486  C0000030   1.000000000000e+00
    X0001486  OBJ        1.000000000000e+00
    X0001487  C0000023   1.000000000000e+00
    X0001487  C0000050   1.000000000000e+00
    X0001487  OBJ        1.000000000000e+00
    X0001488  C0000023   1.000000000000e+00
    X0001488  C0000151   1.000000000000e+00
    X0001488  OBJ        1.000000000000e+00
    X0001489  C0000023   1.000000000000e+00
    X0001489  C0000195   1.000000000000e+00
    X0001489  OBJ        1.000000000000e+00
    X0001490  C0000023   1.000000000000e+00
    X0001490  C0000159   1.000000000000e+00
    X0001490  OBJ        1.000000000000e+00
    X0001491  C0000023   1.000000000000e+00
    X0001491  C0000171   1.000000000000e+00
    X0001491  OBJ        1.000000000000e+00
    X0001492  C0000023   1.000000000000e+00
    X0001492  C0000163   1.000000000000e+00
    X0001492  OBJ        1.000000000000e+00
    X0001493  C0000023   1.000000000000e+00
    X0001493  C0000136   1.000000000000e+00
    X0001493  OBJ        1.000000000000e+00
    X0001494  C0000023   1.000000000000e+00
    X0001494  C0000137   1.000000000000e+00
    X0001494  OBJ        1.000000000000e+00
    X0001495  C0000023   1.000000000000e+00
    X0001495  C0000134   1.000000000000e+00
    X0001495  OBJ        1.000000000000e+00
    X0001496  C0000013   1.000000000000e+00
    X0001496  C0000023   1.000000000000e+00
    X0001496  OBJ        1.000000000000e+00
    X0001497  C0000014   1.000000000000e+00
    X0001497  C0000023   1.000000000000e+00
    X0001497  OBJ        1.000000000000e+00
    X0001498  C0000016   1.000000000000e+00
    X0001498  C0000023   1.000000000000e+00
    X0001498  OBJ        1.000000000000e+00
    X0001499  C0000006   1.000000000000e+00
    X0001499  C0000023   1.000000000000e+00
    X0001499  OBJ        1.000000000000e+00
    X0001500  C0000023   1.000000000000e+00
    X0001500  C0000109   1.000000000000e+00
    X0001500  OBJ        1.000000000000e+00
    X0001501  C0000023   1.000000000000e+00
    X0001501  C0000105   1.000000000000e+00
    X0001501  OBJ        1.000000000000e+00
    X0001502  C0000023   1.000000000000e+00
    X0001502  C0000103   1.000000000000e+00
    X0001502  OBJ        1.000000000000e+00
    X0001503  C0000023   1.000000000000e+00
    X0001503  C0000099   1.000000000000e+00
    X0001503  OBJ        1.000000000000e+00
    X0001504  C0000023   1.000000000000e+00
    X0001504  C0000117   1.000000000000e+00
    X0001504  OBJ        1.000000000000e+00
    X0001505  C0000023   1.000000000000e+00
    X0001505  C0000097   1.000000000000e+00
    X0001505  OBJ        1.000000000000e+00
    X0001506  C0000023   1.000000000000e+00
    X0001506  C0000094   1.000000000000e+00
    X0001506  OBJ        1.000000000000e+00
    X0001507  C0000027   1.000000000000e+00
    X0001507  C0000054   1.000000000000e+00
    X0001507  OBJ        1.000000000000e+00
    X0001508  C0000027   1.000000000000e+00
    X0001508  C0000295   1.000000000000e+00
    X0001508  OBJ        1.000000000000e+00
    X0001509  C0000027   1.000000000000e+00
    X0001509  C0000046   1.000000000000e+00
    X0001509  OBJ        1.000000000000e+00
    X0001510  C0000027   1.000000000000e+00
    X0001510  C0000175   1.000000000000e+00
    X0001510  OBJ        1.000000000000e+00
    X0001511  C0000027   1.000000000000e+00
    X0001511  C0000182   1.000000000000e+00
    X0001511  OBJ        1.000000000000e+00
    X0001512  C0000027   1.000000000000e+00
    X0001512  C0000291   1.000000000000e+00
    X0001512  OBJ        1.000000000000e+00
    X0001513  C0000027   1.000000000000e+00
    X0001513  C0000042   1.000000000000e+00
    X0001513  OBJ        1.000000000000e+00
    X0001514  C0000027   1.000000000000e+00
    X0001514  C0000053   1.000000000000e+00
    X0001514  OBJ        1.000000000000e+00
    X0001515  C0000027   1.000000000000e+00
    X0001515  C0000179   1.000000000000e+00
    X0001515  OBJ        1.000000000000e+00
    X0001516  C0000027   1.000000000000e+00
    X0001516  C0000135   1.000000000000e+00
    X0001516  OBJ        1.000000000000e+00
    X0001517  C0000027   1.000000000000e+00
    X0001517  C0000111   1.000000000000e+00
    X0001517  OBJ        1.000000000000e+00
    X0001518  C0000012   1.000000000000e+00
    X0001518  C0000027   1.000000000000e+00
    X0001518  OBJ        1.000000000000e+00
    X0001519  C0000027   1.000000000000e+00
    X0001519  C0000167   1.000000000000e+00
    X0001519  OBJ        1.000000000000e+00
    X0001520  C0000027   1.000000000000e+00
    X0001520  C0000184   1.000000000000e+00
    X0001520  OBJ        1.000000000000e+00
    X0001521  C0000027   1.000000000000e+00
    X0001521  C0000188   1.000000000000e+00
    X0001521  OBJ        1.000000000000e+00
    X0001522  C0000027   1.000000000000e+00
    X0001522  C0000192   1.000000000000e+00
    X0001522  OBJ        1.000000000000e+00
    X0001523  C0000027   1.000000000000e+00
    X0001523  C0000287   1.000000000000e+00
    X0001523  OBJ        1.000000000000e+00
    X0001524  C0000027   1.000000000000e+00
    X0001524  C0000286   1.000000000000e+00
    X0001524  OBJ        1.000000000000e+00
    X0001525  C0000027   1.000000000000e+00
    X0001525  C0000288   1.000000000000e+00
    X0001525  OBJ        1.000000000000e+00
    X0001526  C0000027   1.000000000000e+00
    X0001526  C0000032   1.000000000000e+00
    X0001526  OBJ        1.000000000000e+00
    X0001527  C0000027   1.000000000000e+00
    X0001527  C0000036   1.000000000000e+00
    X0001527  OBJ        1.000000000000e+00
    X0001528  C0000027   1.000000000000e+00
    X0001528  C0000040   1.000000000000e+00
    X0001528  OBJ        1.000000000000e+00
    X0001529  C0000027   1.000000000000e+00
    X0001529  C0000050   1.000000000000e+00
    X0001529  OBJ        1.000000000000e+00
    X0001530  C0000027   1.000000000000e+00
    X0001530  C0000195   1.000000000000e+00
    X0001530  OBJ        1.000000000000e+00
    X0001531  C0000027   1.000000000000e+00
    X0001531  C0000159   1.000000000000e+00
    X0001531  OBJ        1.000000000000e+00
    X0001532  C0000027   1.000000000000e+00
    X0001532  C0000171   1.000000000000e+00
    X0001532  OBJ        1.000000000000e+00
    X0001533  C0000027   1.000000000000e+00
    X0001533  C0000163   1.000000000000e+00
    X0001533  OBJ        1.000000000000e+00
    X0001534  C0000027   1.000000000000e+00
    X0001534  C0000136   1.000000000000e+00
    X0001534  OBJ        1.000000000000e+00
    X0001535  C0000027   1.000000000000e+00
    X0001535  C0000137   1.000000000000e+00
    X0001535  OBJ        1.000000000000e+00
    X0001536  C0000027   1.000000000000e+00
    X0001536  C0000134   1.000000000000e+00
    X0001536  OBJ        1.000000000000e+00
    X0001537  C0000013   1.000000000000e+00
    X0001537  C0000027   1.000000000000e+00
    X0001537  OBJ        1.000000000000e+00
    X0001538  C0000014   1.000000000000e+00
    X0001538  C0000027   1.000000000000e+00
    X0001538  OBJ        1.000000000000e+00
    X0001539  C0000006   1.000000000000e+00
    X0001539  C0000027   1.000000000000e+00
    X0001539  OBJ        1.000000000000e+00
    X0001540  C0000027   1.000000000000e+00
    X0001540  C0000109   1.000000000000e+00
    X0001540  OBJ        1.000000000000e+00
    X0001541  C0000027   1.000000000000e+00
    X0001541  C0000105   1.000000000000e+00
    X0001541  OBJ        1.000000000000e+00
    X0001542  C0000027   1.000000000000e+00
    X0001542  C0000103   1.000000000000e+00
    X0001542  OBJ        1.000000000000e+00
    X0001543  C0000027   1.000000000000e+00
    X0001543  C0000099   1.000000000000e+00
    X0001543  OBJ        1.000000000000e+00
    X0001544  C0000027   1.000000000000e+00
    X0001544  C0000097   1.000000000000e+00
    X0001544  OBJ        1.000000000000e+00
    X0001545  C0000027   1.000000000000e+00
    X0001545  C0000094   1.000000000000e+00
    X0001545  OBJ        1.000000000000e+00
    X0001546  C0000033   1.000000000000e+00
    X0001546  C0000054   1.000000000000e+00
    X0001546  OBJ        1.000000000000e+00
    X0001547  C0000033   1.000000000000e+00
    X0001547  C0000046   1.000000000000e+00
    X0001547  OBJ        1.000000000000e+00
    X0001548  C0000033   1.000000000000e+00
    X0001548  C0000175   1.000000000000e+00
    X0001548  OBJ        1.000000000000e+00
    X0001549  C0000033   1.000000000000e+00
    X0001549  C0000182   1.000000000000e+00
    X0001549  OBJ        1.000000000000e+00
    X0001550  C0000033   1.000000000000e+00
    X0001550  C0000291   1.000000000000e+00
    X0001550  OBJ        1.000000000000e+00
    X0001551  C0000033   1.000000000000e+00
    X0001551  C0000042   1.000000000000e+00
    X0001551  OBJ        1.000000000000e+00
    X0001552  C0000033   1.000000000000e+00
    X0001552  C0000053   1.000000000000e+00
    X0001552  OBJ        1.000000000000e+00
    X0001553  C0000033   1.000000000000e+00
    X0001553  C0000179   1.000000000000e+00
    X0001553  OBJ        1.000000000000e+00
    X0001554  C0000033   1.000000000000e+00
    X0001554  C0000135   1.000000000000e+00
    X0001554  OBJ        1.000000000000e+00
    X0001555  C0000033   1.000000000000e+00
    X0001555  C0000184   1.000000000000e+00
    X0001555  OBJ        1.000000000000e+00
    X0001556  C0000033   1.000000000000e+00
    X0001556  C0000188   1.000000000000e+00
    X0001556  OBJ        1.000000000000e+00
    X0001557  C0000033   1.000000000000e+00
    X0001557  C0000192   1.000000000000e+00
    X0001557  OBJ        1.000000000000e+00
    X0001558  C0000033   1.000000000000e+00
    X0001558  C0000287   1.000000000000e+00
    X0001558  OBJ        1.000000000000e+00
    X0001559  C0000033   1.000000000000e+00
    X0001559  C0000286   1.000000000000e+00
    X0001559  OBJ        1.000000000000e+00
    X0001560  C0000033   1.000000000000e+00
    X0001560  C0000288   1.000000000000e+00
    X0001560  OBJ        1.000000000000e+00
    X0001561  C0000033   1.000000000000e+00
    X0001561  C0000040   1.000000000000e+00
    X0001561  OBJ        1.000000000000e+00
    X0001562  C0000033   1.000000000000e+00
    X0001562  C0000050   1.000000000000e+00
    X0001562  OBJ        1.000000000000e+00
    X0001563  C0000033   1.000000000000e+00
    X0001563  C0000195   1.000000000000e+00
    X0001563  OBJ        1.000000000000e+00
    X0001564  C0000033   1.000000000000e+00
    X0001564  C0000171   1.000000000000e+00
    X0001564  OBJ        1.000000000000e+00
    X0001565  C0000033   1.000000000000e+00
    X0001565  C0000136   1.000000000000e+00
    X0001565  OBJ        1.000000000000e+00
    X0001566  C0000033   1.000000000000e+00
    X0001566  C0000137   1.000000000000e+00
    X0001566  OBJ        1.000000000000e+00
    X0001567  C0000033   1.000000000000e+00
    X0001567  C0000134   1.000000000000e+00
    X0001567  OBJ        1.000000000000e+00
    X0001568  C0000013   1.000000000000e+00
    X0001568  C0000033   1.000000000000e+00
    X0001568  OBJ        1.000000000000e+00
    X0001569  C0000014   1.000000000000e+00
    X0001569  C0000033   1.000000000000e+00
    X0001569  OBJ        1.000000000000e+00
    X0001570  C0000006   1.000000000000e+00
    X0001570  C0000033   1.000000000000e+00
    X0001570  OBJ        1.000000000000e+00
    X0001571  C0000033   1.000000000000e+00
    X0001571  C0000103   1.000000000000e+00
    X0001571  OBJ        1.000000000000e+00
    X0001572  C0000033   1.000000000000e+00
    X0001572  C0000099   1.000000000000e+00
    X0001572  OBJ        1.000000000000e+00
    X0001573  C0000033   1.000000000000e+00
    X0001573  C0000097   1.000000000000e+00
    X0001573  OBJ        1.000000000000e+00
    X0001574  C0000033   1.000000000000e+00
    X0001574  C0000094   1.000000000000e+00
    X0001574  OBJ        1.000000000000e+00
    X0001575  C0000019   1.000000000000e+00
    X0001575  C0000031   1.000000000000e+00
    X0001575  OBJ        1.000000000000e+00
    X0001576  C0000031   1.000000000000e+00
    X0001576  C0000052   1.000000000000e+00
    X0001576  OBJ        1.000000000000e+00
    X0001577  C0000031   1.000000000000e+00
    X0001577  C0000044   1.000000000000e+00
    X0001577  OBJ        1.000000000000e+00
    X0001578  C0000031   1.000000000000e+00
    X0001578  C0000056   1.000000000000e+00
    X0001578  OBJ        1.000000000000e+00
    X0001579  C0000019   1.000000000000e+00
    X0001579  C0000035   1.000000000000e+00
    X0001579  OBJ        1.000000000000e+00
    X0001580  C0000035   1.000000000000e+00
    X0001580  C0000052   1.000000000000e+00
    X0001580  OBJ        1.000000000000e+00
    X0001581  C0000035   1.000000000000e+00
    X0001581  C0000056   1.000000000000e+00
    X0001581  OBJ        1.000000000000e+00
    X0001582  C0000037   1.000000000000e+00
    X0001582  C0000054   1.000000000000e+00
    X0001582  OBJ        1.000000000000e+00
    X0001583  C0000037   1.000000000000e+00
    X0001583  C0000046   1.000000000000e+00
    X0001583  OBJ        1.000000000000e+00
    X0001584  C0000037   1.000000000000e+00
    X0001584  C0000175   1.000000000000e+00
    X0001584  OBJ        1.000000000000e+00
    X0001585  C0000037   1.000000000000e+00
    X0001585  C0000182   1.000000000000e+00
    X0001585  OBJ        1.000000000000e+00
    X0001586  C0000037   1.000000000000e+00
    X0001586  C0000042   1.000000000000e+00
    X0001586  OBJ        1.000000000000e+00
    X0001587  C0000037   1.000000000000e+00
    X0001587  C0000053   1.000000000000e+00
    X0001587  OBJ        1.000000000000e+00
    X0001588  C0000037   1.000000000000e+00
    X0001588  C0000179   1.000000000000e+00
    X0001588  OBJ        1.000000000000e+00
    X0001589  C0000037   1.000000000000e+00
    X0001589  C0000135   1.000000000000e+00
    X0001589  OBJ        1.000000000000e+00
    X0001590  C0000037   1.000000000000e+00
    X0001590  C0000184   1.000000000000e+00
    X0001590  OBJ        1.000000000000e+00
    X0001591  C0000037   1.000000000000e+00
    X0001591  C0000188   1.000000000000e+00
    X0001591  OBJ        1.000000000000e+00
    X0001592  C0000037   1.000000000000e+00
    X0001592  C0000192   1.000000000000e+00
    X0001592  OBJ        1.000000000000e+00
    X0001593  C0000037   1.000000000000e+00
    X0001593  C0000287   1.000000000000e+00
    X0001593  OBJ        1.000000000000e+00
    X0001594  C0000037   1.000000000000e+00
    X0001594  C0000286   1.000000000000e+00
    X0001594  OBJ        1.000000000000e+00
    X0001595  C0000037   1.000000000000e+00
    X0001595  C0000288   1.000000000000e+00
    X0001595  OBJ        1.000000000000e+00
    X0001596  C0000037   1.000000000000e+00
    X0001596  C0000050   1.000000000000e+00
    X0001596  OBJ        1.000000000000e+00
    X0001597  C0000037   1.000000000000e+00
    X0001597  C0000195   1.000000000000e+00
    X0001597  OBJ        1.000000000000e+00
    X0001598  C0000037   1.000000000000e+00
    X0001598  C0000136   1.000000000000e+00
    X0001598  OBJ        1.000000000000e+00
    X0001599  C0000037   1.000000000000e+00
    X0001599  C0000137   1.000000000000e+00
    X0001599  OBJ        1.000000000000e+00
    X0001600  C0000037   1.000000000000e+00
    X0001600  C0000134   1.000000000000e+00
    X0001600  OBJ        1.000000000000e+00
    X0001601  C0000013   1.000000000000e+00
    X0001601  C0000037   1.000000000000e+00
    X0001601  OBJ        1.000000000000e+00
    X0001602  C0000014   1.000000000000e+00
    X0001602  C0000037   1.000000000000e+00
    X0001602  OBJ        1.000000000000e+00
    X0001603  C0000006   1.000000000000e+00
    X0001603  C0000037   1.000000000000e+00
    X0001603  OBJ        1.000000000000e+00
    X0001604  C0000037   1.000000000000e+00
    X0001604  C0000103   1.000000000000e+00
    X0001604  OBJ        1.000000000000e+00
    X0001605  C0000037   1.000000000000e+00
    X0001605  C0000099   1.000000000000e+00
    X0001605  OBJ        1.000000000000e+00
    X0001606  C0000037   1.000000000000e+00
    X0001606  C0000097   1.000000000000e+00
    X0001606  OBJ        1.000000000000e+00
    X0001607  C0000037   1.000000000000e+00
    X0001607  C0000094   1.000000000000e+00
    X0001607  OBJ        1.000000000000e+00
    X0001608  C0000039   1.000000000000e+00
    X0001608  C0000048   1.000000000000e+00
    X0001608  OBJ        1.000000000000e+00
    X0001609  C0000043   1.000000000000e+00
    X0001609  C0000054   1.000000000000e+00
    X0001609  OBJ        1.000000000000e+00
    X0001610  C0000043   1.000000000000e+00
    X0001610  C0000182   1.000000000000e+00
    X0001610  OBJ        1.000000000000e+00
    X0001611  C0000043   1.000000000000e+00
    X0001611  C0000053   1.000000000000e+00
    X0001611  OBJ        1.000000000000e+00
    X0001612  C0000043   1.000000000000e+00
    X0001612  C0000184   1.000000000000e+00
    X0001612  OBJ        1.000000000000e+00
    X0001613  C0000043   1.000000000000e+00
    X0001613  C0000188   1.000000000000e+00
    X0001613  OBJ        1.000000000000e+00
    X0001614  C0000043   1.000000000000e+00
    X0001614  C0000192   1.000000000000e+00
    X0001614  OBJ        1.000000000000e+00
    X0001615  C0000043   1.000000000000e+00
    X0001615  C0000287   1.000000000000e+00
    X0001615  OBJ        1.000000000000e+00
    X0001616  C0000043   1.000000000000e+00
    X0001616  C0000286   1.000000000000e+00
    X0001616  OBJ        1.000000000000e+00
    X0001617  C0000043   1.000000000000e+00
    X0001617  C0000050   1.000000000000e+00
    X0001617  OBJ        1.000000000000e+00
    X0001618  C0000043   1.000000000000e+00
    X0001618  C0000195   1.000000000000e+00
    X0001618  OBJ        1.000000000000e+00
    X0001619  C0000043   1.000000000000e+00
    X0001619  C0000136   1.000000000000e+00
    X0001619  OBJ        1.000000000000e+00
    X0001620  C0000043   1.000000000000e+00
    X0001620  C0000137   1.000000000000e+00
    X0001620  OBJ        1.000000000000e+00
    X0001621  C0000006   1.000000000000e+00
    X0001621  C0000043   1.000000000000e+00
    X0001621  OBJ        1.000000000000e+00
    X0001622  C0000043   1.000000000000e+00
    X0001622  C0000097   1.000000000000e+00
    X0001622  OBJ        1.000000000000e+00
    X0001623  C0000043   1.000000000000e+00
    X0001623  C0000094   1.000000000000e+00
    X0001623  OBJ        1.000000000000e+00
    X0001624  C0000055   1.000000000000e+00
    X0001624  C0000195   1.000000000000e+00
    X0001624  OBJ        1.000000000000e+00
    X0001625  C0000054   1.000000000000e+00
    X0001625  C0000057   1.000000000000e+00
    X0001625  OBJ        1.000000000000e+00
    X0001626  C0000057   1.000000000000e+00
    X0001626  C0000295   1.000000000000e+00
    X0001626  OBJ        1.000000000000e+00
    X0001627  C0000046   1.000000000000e+00
    X0001627  C0000057   1.000000000000e+00
    X0001627  OBJ        1.000000000000e+00
    X0001628  C0000026   1.000000000000e+00
    X0001628  C0000057   1.000000000000e+00
    X0001628  OBJ        1.000000000000e+00
    X0001629  C0000057   1.000000000000e+00
    X0001629  C0000175   1.000000000000e+00
    X0001629  OBJ        1.000000000000e+00
    X0001630  C0000057   1.000000000000e+00
    X0001630  C0000182   1.000000000000e+00
    X0001630  OBJ        1.000000000000e+00
    X0001631  C0000057   1.000000000000e+00
    X0001631  C0000291   1.000000000000e+00
    X0001631  OBJ        1.000000000000e+00
    X0001632  C0000042   1.000000000000e+00
    X0001632  C0000057   1.000000000000e+00
    X0001632  OBJ        1.000000000000e+00
    X0001633  C0000053   1.000000000000e+00
    X0001633  C0000057   1.000000000000e+00
    X0001633  OBJ        1.000000000000e+00
    X0001634  C0000057   1.000000000000e+00
    X0001634  C0000146   1.000000000000e+00
    X0001634  OBJ        1.000000000000e+00
    X0001635  C0000057   1.000000000000e+00
    X0001635  C0000179   1.000000000000e+00
    X0001635  OBJ        1.000000000000e+00
    X0001636  C0000057   1.000000000000e+00
    X0001636  C0000128   1.000000000000e+00
    X0001636  OBJ        1.000000000000e+00
    X0001637  C0000057   1.000000000000e+00
    X0001637  C0000135   1.000000000000e+00
    X0001637  OBJ        1.000000000000e+00
    X0001638  C0000057   1.000000000000e+00
    X0001638  C0000111   1.000000000000e+00
    X0001638  OBJ        1.000000000000e+00
    X0001639  C0000012   1.000000000000e+00
    X0001639  C0000057   1.000000000000e+00
    X0001639  OBJ        1.000000000000e+00
    X0001640  C0000057   1.000000000000e+00
    X0001640  C0000155   1.000000000000e+00
    X0001640  OBJ        1.000000000000e+00
    X0001641  C0000057   1.000000000000e+00
    X0001641  C0000167   1.000000000000e+00
    X0001641  OBJ        1.000000000000e+00
    X0001642  C0000057   1.000000000000e+00
    X0001642  C0000184   1.000000000000e+00
    X0001642  OBJ        1.000000000000e+00
    X0001643  C0000057   1.000000000000e+00
    X0001643  C0000188   1.000000000000e+00
    X0001643  OBJ        1.000000000000e+00
    X0001644  C0000057   1.000000000000e+00
    X0001644  C0000192   1.000000000000e+00
    X0001644  OBJ        1.000000000000e+00
    X0001645  C0000057   1.000000000000e+00
    X0001645  C0000304   1.000000000000e+00
    X0001645  OBJ        1.000000000000e+00
    X0001646  C0000057   1.000000000000e+00
    X0001646  C0000287   1.000000000000e+00
    X0001646  OBJ        1.000000000000e+00
    X0001647  C0000057   1.000000000000e+00
    X0001647  C0000286   1.000000000000e+00
    X0001647  OBJ        1.000000000000e+00
    X0001648  C0000057   1.000000000000e+00
    X0001648  C0000298   1.000000000000e+00
    X0001648  OBJ        1.000000000000e+00
    X0001649  C0000057   1.000000000000e+00
    X0001649  C0000288   1.000000000000e+00
    X0001649  OBJ        1.000000000000e+00
    X0001650  C0000032   1.000000000000e+00
    X0001650  C0000057   1.000000000000e+00
    X0001650  OBJ        1.000000000000e+00
    X0001651  C0000036   1.000000000000e+00
    X0001651  C0000057   1.000000000000e+00
    X0001651  OBJ        1.000000000000e+00
    X0001652  C0000040   1.000000000000e+00
    X0001652  C0000057   1.000000000000e+00
    X0001652  OBJ        1.000000000000e+00
    X0001653  C0000022   1.000000000000e+00
    X0001653  C0000057   1.000000000000e+00
    X0001653  OBJ        1.000000000000e+00
    X0001654  C0000030   1.000000000000e+00
    X0001654  C0000057   1.000000000000e+00
    X0001654  OBJ        1.000000000000e+00
    X0001655  C0000050   1.000000000000e+00
    X0001655  C0000057   1.000000000000e+00
    X0001655  OBJ        1.000000000000e+00
    X0001656  C0000057   1.000000000000e+00
    X0001656  C0000143   1.000000000000e+00
    X0001656  OBJ        1.000000000000e+00
    X0001657  C0000057   1.000000000000e+00
    X0001657  C0000151   1.000000000000e+00
    X0001657  OBJ        1.000000000000e+00
    X0001658  C0000057   1.000000000000e+00
    X0001658  C0000195   1.000000000000e+00
    X0001658  OBJ        1.000000000000e+00
    X0001659  C0000057   1.000000000000e+00
    X0001659  C0000159   1.000000000000e+00
    X0001659  OBJ        1.000000000000e+00
    X0001660  C0000057   1.000000000000e+00
    X0001660  C0000171   1.000000000000e+00
    X0001660  OBJ        1.000000000000e+00
    X0001661  C0000057   1.000000000000e+00
    X0001661  C0000163   1.000000000000e+00
    X0001661  OBJ        1.000000000000e+00
    X0001662  C0000057   1.000000000000e+00
    X0001662  C0000136   1.000000000000e+00
    X0001662  OBJ        1.000000000000e+00
    X0001663  C0000057   1.000000000000e+00
    X0001663  C0000137   1.000000000000e+00
    X0001663  OBJ        1.000000000000e+00
    X0001664  C0000057   1.000000000000e+00
    X0001664  C0000134   1.000000000000e+00
    X0001664  OBJ        1.000000000000e+00
    X0001665  C0000001   1.000000000000e+00
    X0001665  C0000057   1.000000000000e+00
    X0001665  OBJ        1.000000000000e+00
    X0001666  C0000013   1.000000000000e+00
    X0001666  C0000057   1.000000000000e+00
    X0001666  OBJ        1.000000000000e+00
    X0001667  C0000014   1.000000000000e+00
    X0001667  C0000057   1.000000000000e+00
    X0001667  OBJ        1.000000000000e+00
    X0001668  C0000016   1.000000000000e+00
    X0001668  C0000057   1.000000000000e+00
    X0001668  OBJ        1.000000000000e+00
    X0001669  C0000006   1.000000000000e+00
    X0001669  C0000057   1.000000000000e+00
    X0001669  OBJ        1.000000000000e+00
    X0001670  C0000057   1.000000000000e+00
    X0001670  C0000109   1.000000000000e+00
    X0001670  OBJ        1.000000000000e+00
    X0001671  C0000057   1.000000000000e+00
    X0001671  C0000105   1.000000000000e+00
    X0001671  OBJ        1.000000000000e+00
    X0001672  C0000057   1.000000000000e+00
    X0001672  C0000103   1.000000000000e+00
    X0001672  OBJ        1.000000000000e+00
    X0001673  C0000057   1.000000000000e+00
    X0001673  C0000125   1.000000000000e+00
    X0001673  OBJ        1.000000000000e+00
    X0001674  C0000057   1.000000000000e+00
    X0001674  C0000099   1.000000000000e+00
    X0001674  OBJ        1.000000000000e+00
    X0001675  C0000057   1.000000000000e+00
    X0001675  C0000121   1.000000000000e+00
    X0001675  OBJ        1.000000000000e+00
    X0001676  C0000057   1.000000000000e+00
    X0001676  C0000117   1.000000000000e+00
    X0001676  OBJ        1.000000000000e+00
    X0001677  C0000057   1.000000000000e+00
    X0001677  C0000097   1.000000000000e+00
    X0001677  OBJ        1.000000000000e+00
    X0001678  C0000057   1.000000000000e+00
    X0001678  C0000094   1.000000000000e+00
    X0001678  OBJ        1.000000000000e+00
    X0001679  C0000021   1.000000000000e+00
    X0001679  C0000048   1.000000000000e+00
    X0001679  OBJ        1.000000000000e+00
    X0001680  C0000021   1.000000000000e+00
    X0001680  C0000028   1.000000000000e+00
    X0001680  OBJ        1.000000000000e+00
    X0001681  C0000021   1.000000000000e+00
    X0001681  C0000034   1.000000000000e+00
    X0001681  OBJ        1.000000000000e+00
    X0001682  C0000029   1.000000000000e+00
    X0001682  C0000048   1.000000000000e+00
    X0001682  OBJ        1.000000000000e+00
    X0001683  C0000029   1.000000000000e+00
    X0001683  C0000034   1.000000000000e+00
    X0001683  OBJ        1.000000000000e+00
    X0001684  C0000019   1.000000000000e+00
    X0001684  C0000049   1.000000000000e+00
    X0001684  OBJ        1.000000000000e+00
    X0001685  C0000054   1.000000000000e+00
    X0001685  C0000148   1.000000000000e+00
    X0001685  OBJ        1.000000000000e+00
    X0001686  C0000148   1.000000000000e+00
    X0001686  C0000295   1.000000000000e+00
    X0001686  OBJ        1.000000000000e+00
    X0001687  C0000046   1.000000000000e+00
    X0001687  C0000148   1.000000000000e+00
    X0001687  OBJ        1.000000000000e+00
    X0001688  C0000026   1.000000000000e+00
    X0001688  C0000148   1.000000000000e+00
    X0001688  OBJ        1.000000000000e+00
    X0001689  C0000148   1.000000000000e+00
    X0001689  C0000175   1.000000000000e+00
    X0001689  OBJ        1.000000000000e+00
    X0001690  C0000148   1.000000000000e+00
    X0001690  C0000182   1.000000000000e+00
    X0001690  OBJ        1.000000000000e+00
    X0001691  C0000148   1.000000000000e+00
    X0001691  C0000291   1.000000000000e+00
    X0001691  OBJ        1.000000000000e+00
    X0001692  C0000042   1.000000000000e+00
    X0001692  C0000148   1.000000000000e+00
    X0001692  OBJ        1.000000000000e+00
    X0001693  C0000053   1.000000000000e+00
    X0001693  C0000148   1.000000000000e+00
    X0001693  OBJ        1.000000000000e+00
    X0001694  C0000146   1.000000000000e+00
    X0001694  C0000148   1.000000000000e+00
    X0001694  OBJ        1.000000000000e+00
    X0001695  C0000148   1.000000000000e+00
    X0001695  C0000179   1.000000000000e+00
    X0001695  OBJ        1.000000000000e+00
    X0001696  C0000128   1.000000000000e+00
    X0001696  C0000148   1.000000000000e+00
    X0001696  OBJ        1.000000000000e+00
    X0001697  C0000135   1.000000000000e+00
    X0001697  C0000148   1.000000000000e+00
    X0001697  OBJ        1.000000000000e+00
    X0001698  C0000111   1.000000000000e+00
    X0001698  C0000148   1.000000000000e+00
    X0001698  OBJ        1.000000000000e+00
    X0001699  C0000012   1.000000000000e+00
    X0001699  C0000148   1.000000000000e+00
    X0001699  OBJ        1.000000000000e+00
    X0001700  C0000148   1.000000000000e+00
    X0001700  C0000155   1.000000000000e+00
    X0001700  OBJ        1.000000000000e+00
    X0001701  C0000148   1.000000000000e+00
    X0001701  C0000167   1.000000000000e+00
    X0001701  OBJ        1.000000000000e+00
    X0001702  C0000148   1.000000000000e+00
    X0001702  C0000184   1.000000000000e+00
    X0001702  OBJ        1.000000000000e+00
    X0001703  C0000148   1.000000000000e+00
    X0001703  C0000188   1.000000000000e+00
    X0001703  OBJ        1.000000000000e+00
    X0001704  C0000148   1.000000000000e+00
    X0001704  C0000192   1.000000000000e+00
    X0001704  OBJ        1.000000000000e+00
    X0001705  C0000148   1.000000000000e+00
    X0001705  C0000304   1.000000000000e+00
    X0001705  OBJ        1.000000000000e+00
    X0001706  C0000148   1.000000000000e+00
    X0001706  C0000287   1.000000000000e+00
    X0001706  OBJ        1.000000000000e+00
    X0001707  C0000148   1.000000000000e+00
    X0001707  C0000286   1.000000000000e+00
    X0001707  OBJ        1.000000000000e+00
    X0001708  C0000148   1.000000000000e+00
    X0001708  C0000298   1.000000000000e+00
    X0001708  OBJ        1.000000000000e+00
    X0001709  C0000148   1.000000000000e+00
    X0001709  C0000288   1.000000000000e+00
    X0001709  OBJ        1.000000000000e+00
    X0001710  C0000032   1.000000000000e+00
    X0001710  C0000148   1.000000000000e+00
    X0001710  OBJ        1.000000000000e+00
    X0001711  C0000036   1.000000000000e+00
    X0001711  C0000148   1.000000000000e+00
    X0001711  OBJ        1.000000000000e+00
    X0001712  C0000040   1.000000000000e+00
    X0001712  C0000148   1.000000000000e+00
    X0001712  OBJ        1.000000000000e+00
    X0001713  C0000030   1.000000000000e+00
    X0001713  C0000148   1.000000000000e+00
    X0001713  OBJ        1.000000000000e+00
    X0001714  C0000050   1.000000000000e+00
    X0001714  C0000148   1.000000000000e+00
    X0001714  OBJ        1.000000000000e+00
    X0001715  C0000148   1.000000000000e+00
    X0001715  C0000151   1.000000000000e+00
    X0001715  OBJ        1.000000000000e+00
    X0001716  C0000148   1.000000000000e+00
    X0001716  C0000195   1.000000000000e+00
    X0001716  OBJ        1.000000000000e+00
    X0001717  C0000148   1.000000000000e+00
    X0001717  C0000159   1.000000000000e+00
    X0001717  OBJ        1.000000000000e+00
    X0001718  C0000148   1.000000000000e+00
    X0001718  C0000171   1.000000000000e+00
    X0001718  OBJ        1.000000000000e+00
    X0001719  C0000148   1.000000000000e+00
    X0001719  C0000163   1.000000000000e+00
    X0001719  OBJ        1.000000000000e+00
    X0001720  C0000136   1.000000000000e+00
    X0001720  C0000148   1.000000000000e+00
    X0001720  OBJ        1.000000000000e+00
    X0001721  C0000137   1.000000000000e+00
    X0001721  C0000148   1.000000000000e+00
    X0001721  OBJ        1.000000000000e+00
    X0001722  C0000134   1.000000000000e+00
    X0001722  C0000148   1.000000000000e+00
    X0001722  OBJ        1.000000000000e+00
    X0001723  C0000013   1.000000000000e+00
    X0001723  C0000148   1.000000000000e+00
    X0001723  OBJ        1.000000000000e+00
    X0001724  C0000014   1.000000000000e+00
    X0001724  C0000148   1.000000000000e+00
    X0001724  OBJ        1.000000000000e+00
    X0001725  C0000016   1.000000000000e+00
    X0001725  C0000148   1.000000000000e+00
    X0001725  OBJ        1.000000000000e+00
    X0001726  C0000006   1.000000000000e+00
    X0001726  C0000148   1.000000000000e+00
    X0001726  OBJ        1.000000000000e+00
    X0001727  C0000109   1.000000000000e+00
    X0001727  C0000148   1.000000000000e+00
    X0001727  OBJ        1.000000000000e+00
    X0001728  C0000105   1.000000000000e+00
    X0001728  C0000148   1.000000000000e+00
    X0001728  OBJ        1.000000000000e+00
    X0001729  C0000103   1.000000000000e+00
    X0001729  C0000148   1.000000000000e+00
    X0001729  OBJ        1.000000000000e+00
    X0001730  C0000099   1.000000000000e+00
    X0001730  C0000148   1.000000000000e+00
    X0001730  OBJ        1.000000000000e+00
    X0001731  C0000117   1.000000000000e+00
    X0001731  C0000148   1.000000000000e+00
    X0001731  OBJ        1.000000000000e+00
    X0001732  C0000097   1.000000000000e+00
    X0001732  C0000148   1.000000000000e+00
    X0001732  OBJ        1.000000000000e+00
    X0001733  C0000094   1.000000000000e+00
    X0001733  C0000148   1.000000000000e+00
    X0001733  OBJ        1.000000000000e+00
    X0001734  C0000054   1.000000000000e+00
    X0001734  C0000144   1.000000000000e+00
    X0001734  OBJ        1.000000000000e+00
    X0001735  C0000144   1.000000000000e+00
    X0001735  C0000295   1.000000000000e+00
    X0001735  OBJ        1.000000000000e+00
    X0001736  C0000046   1.000000000000e+00
    X0001736  C0000144   1.000000000000e+00
    X0001736  OBJ        1.000000000000e+00
    X0001737  C0000026   1.000000000000e+00
    X0001737  C0000144   1.000000000000e+00
    X0001737  OBJ        1.000000000000e+00
    X0001738  C0000144   1.000000000000e+00
    X0001738  C0000175   1.000000000000e+00
    X0001738  OBJ        1.000000000000e+00
    X0001739  C0000144   1.000000000000e+00
    X0001739  C0000182   1.000000000000e+00
    X0001739  OBJ        1.000000000000e+00
    X0001740  C0000144   1.000000000000e+00
    X0001740  C0000291   1.000000000000e+00
    X0001740  OBJ        1.000000000000e+00
    X0001741  C0000042   1.000000000000e+00
    X0001741  C0000144   1.000000000000e+00
    X0001741  OBJ        1.000000000000e+00
    X0001742  C0000053   1.000000000000e+00
    X0001742  C0000144   1.000000000000e+00
    X0001742  OBJ        1.000000000000e+00
    X0001743  C0000144   1.000000000000e+00
    X0001743  C0000146   1.000000000000e+00
    X0001743  OBJ        1.000000000000e+00
    X0001744  C0000144   1.000000000000e+00
    X0001744  C0000179   1.000000000000e+00
    X0001744  OBJ        1.000000000000e+00
    X0001745  C0000128   1.000000000000e+00
    X0001745  C0000144   1.000000000000e+00
    X0001745  OBJ        1.000000000000e+00
    X0001746  C0000135   1.000000000000e+00
    X0001746  C0000144   1.000000000000e+00
    X0001746  OBJ        1.000000000000e+00
    X0001747  C0000111   1.000000000000e+00
    X0001747  C0000144   1.000000000000e+00
    X0001747  OBJ        1.000000000000e+00
    X0001748  C0000012   1.000000000000e+00
    X0001748  C0000144   1.000000000000e+00
    X0001748  OBJ        1.000000000000e+00
    X0001749  C0000144   1.000000000000e+00
    X0001749  C0000155   1.000000000000e+00
    X0001749  OBJ        1.000000000000e+00
    X0001750  C0000144   1.000000000000e+00
    X0001750  C0000167   1.000000000000e+00
    X0001750  OBJ        1.000000000000e+00
    X0001751  C0000144   1.000000000000e+00
    X0001751  C0000184   1.000000000000e+00
    X0001751  OBJ        1.000000000000e+00
    X0001752  C0000144   1.000000000000e+00
    X0001752  C0000188   1.000000000000e+00
    X0001752  OBJ        1.000000000000e+00
    X0001753  C0000144   1.000000000000e+00
    X0001753  C0000192   1.000000000000e+00
    X0001753  OBJ        1.000000000000e+00
    X0001754  C0000144   1.000000000000e+00
    X0001754  C0000304   1.000000000000e+00
    X0001754  OBJ        1.000000000000e+00
    X0001755  C0000144   1.000000000000e+00
    X0001755  C0000287   1.000000000000e+00
    X0001755  OBJ        1.000000000000e+00
    X0001756  C0000144   1.000000000000e+00
    X0001756  C0000286   1.000000000000e+00
    X0001756  OBJ        1.000000000000e+00
    X0001757  C0000144   1.000000000000e+00
    X0001757  C0000298   1.000000000000e+00
    X0001757  OBJ        1.000000000000e+00
    X0001758  C0000144   1.000000000000e+00
    X0001758  C0000288   1.000000000000e+00
    X0001758  OBJ        1.000000000000e+00
    X0001759  C0000032   1.000000000000e+00
    X0001759  C0000144   1.000000000000e+00
    X0001759  OBJ        1.000000000000e+00
    X0001760  C0000036   1.000000000000e+00
    X0001760  C0000144   1.000000000000e+00
    X0001760  OBJ        1.000000000000e+00
    X0001761  C0000040   1.000000000000e+00
    X0001761  C0000144   1.000000000000e+00
    X0001761  OBJ        1.000000000000e+00
    X0001762  C0000022   1.000000000000e+00
    X0001762  C0000144   1.000000000000e+00
    X0001762  OBJ        1.000000000000e+00
    X0001763  C0000030   1.000000000000e+00
    X0001763  C0000144   1.000000000000e+00
    X0001763  OBJ        1.000000000000e+00
    X0001764  C0000050   1.000000000000e+00
    X0001764  C0000144   1.000000000000e+00
    X0001764  OBJ        1.000000000000e+00
    X0001765  C0000143   1.000000000000e+00
    X0001765  C0000144   1.000000000000e+00
    X0001765  OBJ        1.000000000000e+00
    X0001766  C0000144   1.000000000000e+00
    X0001766  C0000151   1.000000000000e+00
    X0001766  OBJ        1.000000000000e+00
    X0001767  C0000144   1.000000000000e+00
    X0001767  C0000195   1.000000000000e+00
    X0001767  OBJ        1.000000000000e+00
    X0001768  C0000144   1.000000000000e+00
    X0001768  C0000159   1.000000000000e+00
    X0001768  OBJ        1.000000000000e+00
    X0001769  C0000144   1.000000000000e+00
    X0001769  C0000171   1.000000000000e+00
    X0001769  OBJ        1.000000000000e+00
    X0001770  C0000144   1.000000000000e+00
    X0001770  C0000163   1.000000000000e+00
    X0001770  OBJ        1.000000000000e+00
    X0001771  C0000136   1.000000000000e+00
    X0001771  C0000144   1.000000000000e+00
    X0001771  OBJ        1.000000000000e+00
    X0001772  C0000137   1.000000000000e+00
    X0001772  C0000144   1.000000000000e+00
    X0001772  OBJ        1.000000000000e+00
    X0001773  C0000134   1.000000000000e+00
    X0001773  C0000144   1.000000000000e+00
    X0001773  OBJ        1.000000000000e+00
    X0001774  C0000001   1.000000000000e+00
    X0001774  C0000144   1.000000000000e+00
    X0001774  OBJ        1.000000000000e+00
    X0001775  C0000013   1.000000000000e+00
    X0001775  C0000144   1.000000000000e+00
    X0001775  OBJ        1.000000000000e+00
    X0001776  C0000014   1.000000000000e+00
    X0001776  C0000144   1.000000000000e+00
    X0001776  OBJ        1.000000000000e+00
    X0001777  C0000016   1.000000000000e+00
    X0001777  C0000144   1.000000000000e+00
    X0001777  OBJ        1.000000000000e+00
    X0001778  C0000006   1.000000000000e+00
    X0001778  C0000144   1.000000000000e+00
    X0001778  OBJ        1.000000000000e+00
    X0001779  C0000109   1.000000000000e+00
    X0001779  C0000144   1.000000000000e+00
    X0001779  OBJ        1.000000000000e+00
    X0001780  C0000105   1.000000000000e+00
    X0001780  C0000144   1.000000000000e+00
    X0001780  OBJ        1.000000000000e+00
    X0001781  C0000103   1.000000000000e+00
    X0001781  C0000144   1.000000000000e+00
    X0001781  OBJ        1.000000000000e+00
    X0001782  C0000099   1.000000000000e+00
    X0001782  C0000144   1.000000000000e+00
    X0001782  OBJ        1.000000000000e+00
    X0001783  C0000121   1.000000000000e+00
    X0001783  C0000144   1.000000000000e+00
    X0001783  OBJ        1.000000000000e+00
    X0001784  C0000117   1.000000000000e+00
    X0001784  C0000144   1.000000000000e+00
    X0001784  OBJ        1.000000000000e+00
    X0001785  C0000097   1.000000000000e+00
    X0001785  C0000144   1.000000000000e+00
    X0001785  OBJ        1.000000000000e+00
    X0001786  C0000094   1.000000000000e+00
    X0001786  C0000144   1.000000000000e+00
    X0001786  OBJ        1.000000000000e+00
    X0001787  C0000054   1.000000000000e+00
    X0001787  C0000152   1.000000000000e+00
    X0001787  OBJ        1.000000000000e+00
    X0001788  C0000152   1.000000000000e+00
    X0001788  C0000295   1.000000000000e+00
    X0001788  OBJ        1.000000000000e+00
    X0001789  C0000046   1.000000000000e+00
    X0001789  C0000152   1.000000000000e+00
    X0001789  OBJ        1.000000000000e+00
    X0001790  C0000026   1.000000000000e+00
    X0001790  C0000152   1.000000000000e+00
    X0001790  OBJ        1.000000000000e+00
    X0001791  C0000152   1.000000000000e+00
    X0001791  C0000175   1.000000000000e+00
    X0001791  OBJ        1.000000000000e+00
    X0001792  C0000152   1.000000000000e+00
    X0001792  C0000182   1.000000000000e+00
    X0001792  OBJ        1.000000000000e+00
    X0001793  C0000152   1.000000000000e+00
    X0001793  C0000291   1.000000000000e+00
    X0001793  OBJ        1.000000000000e+00
    X0001794  C0000042   1.000000000000e+00
    X0001794  C0000152   1.000000000000e+00
    X0001794  OBJ        1.000000000000e+00
    X0001795  C0000053   1.000000000000e+00
    X0001795  C0000152   1.000000000000e+00
    X0001795  OBJ        1.000000000000e+00
    X0001796  C0000152   1.000000000000e+00
    X0001796  C0000179   1.000000000000e+00
    X0001796  OBJ        1.000000000000e+00
    X0001797  C0000128   1.000000000000e+00
    X0001797  C0000152   1.000000000000e+00
    X0001797  OBJ        1.000000000000e+00
    X0001798  C0000135   1.000000000000e+00
    X0001798  C0000152   1.000000000000e+00
    X0001798  OBJ        1.000000000000e+00
    X0001799  C0000111   1.000000000000e+00
    X0001799  C0000152   1.000000000000e+00
    X0001799  OBJ        1.000000000000e+00
    X0001800  C0000012   1.000000000000e+00
    X0001800  C0000152   1.000000000000e+00
    X0001800  OBJ        1.000000000000e+00
    X0001801  C0000152   1.000000000000e+00
    X0001801  C0000155   1.000000000000e+00
    X0001801  OBJ        1.000000000000e+00
    X0001802  C0000152   1.000000000000e+00
    X0001802  C0000167   1.000000000000e+00
    X0001802  OBJ        1.000000000000e+00
    X0001803  C0000152   1.000000000000e+00
    X0001803  C0000184   1.000000000000e+00
    X0001803  OBJ        1.000000000000e+00
    X0001804  C0000152   1.000000000000e+00
    X0001804  C0000188   1.000000000000e+00
    X0001804  OBJ        1.000000000000e+00
    X0001805  C0000152   1.000000000000e+00
    X0001805  C0000192   1.000000000000e+00
    X0001805  OBJ        1.000000000000e+00
    X0001806  C0000152   1.000000000000e+00
    X0001806  C0000287   1.000000000000e+00
    X0001806  OBJ        1.000000000000e+00
    X0001807  C0000152   1.000000000000e+00
    X0001807  C0000286   1.000000000000e+00
    X0001807  OBJ        1.000000000000e+00
    X0001808  C0000152   1.000000000000e+00
    X0001808  C0000298   1.000000000000e+00
    X0001808  OBJ        1.000000000000e+00
    X0001809  C0000152   1.000000000000e+00
    X0001809  C0000288   1.000000000000e+00
    X0001809  OBJ        1.000000000000e+00
    X0001810  C0000032   1.000000000000e+00
    X0001810  C0000152   1.000000000000e+00
    X0001810  OBJ        1.000000000000e+00
    X0001811  C0000036   1.000000000000e+00
    X0001811  C0000152   1.000000000000e+00
    X0001811  OBJ        1.000000000000e+00
    X0001812  C0000040   1.000000000000e+00
    X0001812  C0000152   1.000000000000e+00
    X0001812  OBJ        1.000000000000e+00
    X0001813  C0000030   1.000000000000e+00
    X0001813  C0000152   1.000000000000e+00
    X0001813  OBJ        1.000000000000e+00
    X0001814  C0000050   1.000000000000e+00
    X0001814  C0000152   1.000000000000e+00
    X0001814  OBJ        1.000000000000e+00
    X0001815  C0000151   1.000000000000e+00
    X0001815  C0000152   1.000000000000e+00
    X0001815  OBJ        1.000000000000e+00
    X0001816  C0000152   1.000000000000e+00
    X0001816  C0000195   1.000000000000e+00
    X0001816  OBJ        1.000000000000e+00
    X0001817  C0000152   1.000000000000e+00
    X0001817  C0000159   1.000000000000e+00
    X0001817  OBJ        1.000000000000e+00
    X0001818  C0000152   1.000000000000e+00
    X0001818  C0000171   1.000000000000e+00
    X0001818  OBJ        1.000000000000e+00
    X0001819  C0000152   1.000000000000e+00
    X0001819  C0000163   1.000000000000e+00
    X0001819  OBJ        1.000000000000e+00
    X0001820  C0000136   1.000000000000e+00
    X0001820  C0000152   1.000000000000e+00
    X0001820  OBJ        1.000000000000e+00
    X0001821  C0000137   1.000000000000e+00
    X0001821  C0000152   1.000000000000e+00
    X0001821  OBJ        1.000000000000e+00
    X0001822  C0000134   1.000000000000e+00
    X0001822  C0000152   1.000000000000e+00
    X0001822  OBJ        1.000000000000e+00
    X0001823  C0000013   1.000000000000e+00
    X0001823  C0000152   1.000000000000e+00
    X0001823  OBJ        1.000000000000e+00
    X0001824  C0000014   1.000000000000e+00
    X0001824  C0000152   1.000000000000e+00
    X0001824  OBJ        1.000000000000e+00
    X0001825  C0000016   1.000000000000e+00
    X0001825  C0000152   1.000000000000e+00
    X0001825  OBJ        1.000000000000e+00
    X0001826  C0000006   1.000000000000e+00
    X0001826  C0000152   1.000000000000e+00
    X0001826  OBJ        1.000000000000e+00
    X0001827  C0000109   1.000000000000e+00
    X0001827  C0000152   1.000000000000e+00
    X0001827  OBJ        1.000000000000e+00
    X0001828  C0000105   1.000000000000e+00
    X0001828  C0000152   1.000000000000e+00
    X0001828  OBJ        1.000000000000e+00
    X0001829  C0000103   1.000000000000e+00
    X0001829  C0000152   1.000000000000e+00
    X0001829  OBJ        1.000000000000e+00
    X0001830  C0000099   1.000000000000e+00
    X0001830  C0000152   1.000000000000e+00
    X0001830  OBJ        1.000000000000e+00
    X0001831  C0000097   1.000000000000e+00
    X0001831  C0000152   1.000000000000e+00
    X0001831  OBJ        1.000000000000e+00
    X0001832  C0000094   1.000000000000e+00
    X0001832  C0000152   1.000000000000e+00
    X0001832  OBJ        1.000000000000e+00
    X0001833  C0000054   1.000000000000e+00
    X0001833  C0000156   1.000000000000e+00
    X0001833  OBJ        1.000000000000e+00
    X0001834  C0000156   1.000000000000e+00
    X0001834  C0000295   1.000000000000e+00
    X0001834  OBJ        1.000000000000e+00
    X0001835  C0000046   1.000000000000e+00
    X0001835  C0000156   1.000000000000e+00
    X0001835  OBJ        1.000000000000e+00
    X0001836  C0000156   1.000000000000e+00
    X0001836  C0000175   1.000000000000e+00
    X0001836  OBJ        1.000000000000e+00
    X0001837  C0000156   1.000000000000e+00
    X0001837  C0000182   1.000000000000e+00
    X0001837  OBJ        1.000000000000e+00
    X0001838  C0000156   1.000000000000e+00
    X0001838  C0000291   1.000000000000e+00
    X0001838  OBJ        1.000000000000e+00
    X0001839  C0000042   1.000000000000e+00
    X0001839  C0000156   1.000000000000e+00
    X0001839  OBJ        1.000000000000e+00
    X0001840  C0000053   1.000000000000e+00
    X0001840  C0000156   1.000000000000e+00
    X0001840  OBJ        1.000000000000e+00
    X0001841  C0000156   1.000000000000e+00
    X0001841  C0000179   1.000000000000e+00
    X0001841  OBJ        1.000000000000e+00
    X0001842  C0000128   1.000000000000e+00
    X0001842  C0000156   1.000000000000e+00
    X0001842  OBJ        1.000000000000e+00
    X0001843  C0000135   1.000000000000e+00
    X0001843  C0000156   1.000000000000e+00
    X0001843  OBJ        1.000000000000e+00
    X0001844  C0000111   1.000000000000e+00
    X0001844  C0000156   1.000000000000e+00
    X0001844  OBJ        1.000000000000e+00
    X0001845  C0000012   1.000000000000e+00
    X0001845  C0000156   1.000000000000e+00
    X0001845  OBJ        1.000000000000e+00
    X0001846  C0000155   1.000000000000e+00
    X0001846  C0000156   1.000000000000e+00
    X0001846  OBJ        1.000000000000e+00
    X0001847  C0000156   1.000000000000e+00
    X0001847  C0000167   1.000000000000e+00
    X0001847  OBJ        1.000000000000e+00
    X0001848  C0000156   1.000000000000e+00
    X0001848  C0000184   1.000000000000e+00
    X0001848  OBJ        1.000000000000e+00
    X0001849  C0000156   1.000000000000e+00
    X0001849  C0000188   1.000000000000e+00
    X0001849  OBJ        1.000000000000e+00
    X0001850  C0000156   1.000000000000e+00
    X0001850  C0000192   1.000000000000e+00
    X0001850  OBJ        1.000000000000e+00
    X0001851  C0000156   1.000000000000e+00
    X0001851  C0000287   1.000000000000e+00
    X0001851  OBJ        1.000000000000e+00
    X0001852  C0000156   1.000000000000e+00
    X0001852  C0000286   1.000000000000e+00
    X0001852  OBJ        1.000000000000e+00
    X0001853  C0000156   1.000000000000e+00
    X0001853  C0000298   1.000000000000e+00
    X0001853  OBJ        1.000000000000e+00
    X0001854  C0000156   1.000000000000e+00
    X0001854  C0000288   1.000000000000e+00
    X0001854  OBJ        1.000000000000e+00
    X0001855  C0000032   1.000000000000e+00
    X0001855  C0000156   1.000000000000e+00
    X0001855  OBJ        1.000000000000e+00
    X0001856  C0000036   1.000000000000e+00
    X0001856  C0000156   1.000000000000e+00
    X0001856  OBJ        1.000000000000e+00
    X0001857  C0000040   1.000000000000e+00
    X0001857  C0000156   1.000000000000e+00
    X0001857  OBJ        1.000000000000e+00
    X0001858  C0000030   1.000000000000e+00
    X0001858  C0000156   1.000000000000e+00
    X0001858  OBJ        1.000000000000e+00
    X0001859  C0000050   1.000000000000e+00
    X0001859  C0000156   1.000000000000e+00
    X0001859  OBJ        1.000000000000e+00
    X0001860  C0000156   1.000000000000e+00
    X0001860  C0000195   1.000000000000e+00
    X0001860  OBJ        1.000000000000e+00
    X0001861  C0000156   1.000000000000e+00
    X0001861  C0000159   1.000000000000e+00
    X0001861  OBJ        1.000000000000e+00
    X0001862  C0000156   1.000000000000e+00
    X0001862  C0000171   1.000000000000e+00
    X0001862  OBJ        1.000000000000e+00
    X0001863  C0000156   1.000000000000e+00
    X0001863  C0000163   1.000000000000e+00
    X0001863  OBJ        1.000000000000e+00
    X0001864  C0000136   1.000000000000e+00
    X0001864  C0000156   1.000000000000e+00
    X0001864  OBJ        1.000000000000e+00
    X0001865  C0000137   1.000000000000e+00
    X0001865  C0000156   1.000000000000e+00
    X0001865  OBJ        1.000000000000e+00
    X0001866  C0000134   1.000000000000e+00
    X0001866  C0000156   1.000000000000e+00
    X0001866  OBJ        1.000000000000e+00
    X0001867  C0000013   1.000000000000e+00
    X0001867  C0000156   1.000000000000e+00
    X0001867  OBJ        1.000000000000e+00
    X0001868  C0000014   1.000000000000e+00
    X0001868  C0000156   1.000000000000e+00
    X0001868  OBJ        1.000000000000e+00
    X0001869  C0000006   1.000000000000e+00
    X0001869  C0000156   1.000000000000e+00
    X0001869  OBJ        1.000000000000e+00
    X0001870  C0000109   1.000000000000e+00
    X0001870  C0000156   1.000000000000e+00
    X0001870  OBJ        1.000000000000e+00
    X0001871  C0000105   1.000000000000e+00
    X0001871  C0000156   1.000000000000e+00
    X0001871  OBJ        1.000000000000e+00
    X0001872  C0000103   1.000000000000e+00
    X0001872  C0000156   1.000000000000e+00
    X0001872  OBJ        1.000000000000e+00
    X0001873  C0000099   1.000000000000e+00
    X0001873  C0000156   1.000000000000e+00
    X0001873  OBJ        1.000000000000e+00
    X0001874  C0000097   1.000000000000e+00
    X0001874  C0000156   1.000000000000e+00
    X0001874  OBJ        1.000000000000e+00
    X0001875  C0000094   1.000000000000e+00
    X0001875  C0000156   1.000000000000e+00
    X0001875  OBJ        1.000000000000e+00
    X0001876  C0000054   1.000000000000e+00
    X0001876  C0000160   1.000000000000e+00
    X0001876  OBJ        1.000000000000e+00
    X0001877  C0000160   1.000000000000e+00
    X0001877  C0000295   1.000000000000e+00
    X0001877  OBJ        1.000000000000e+00
    X0001878  C0000046   1.000000000000e+00
    X0001878  C0000160   1.000000000000e+00
    X0001878  OBJ        1.000000000000e+00
    X0001879  C0000160   1.000000000000e+00
    X0001879  C0000175   1.000000000000e+00
    X0001879  OBJ        1.000000000000e+00
    X0001880  C0000160   1.000000000000e+00
    X0001880  C0000182   1.000000000000e+00
    X0001880  OBJ        1.000000000000e+00
    X0001881  C0000160   1.000000000000e+00
    X0001881  C0000291   1.000000000000e+00
    X0001881  OBJ        1.000000000000e+00
    X0001882  C0000042   1.000000000000e+00
    X0001882  C0000160   1.000000000000e+00
    X0001882  OBJ        1.000000000000e+00
    X0001883  C0000053   1.000000000000e+00
    X0001883  C0000160   1.000000000000e+00
    X0001883  OBJ        1.000000000000e+00
    X0001884  C0000160   1.000000000000e+00
    X0001884  C0000179   1.000000000000e+00
    X0001884  OBJ        1.000000000000e+00
    X0001885  C0000135   1.000000000000e+00
    X0001885  C0000160   1.000000000000e+00
    X0001885  OBJ        1.000000000000e+00
    X0001886  C0000012   1.000000000000e+00
    X0001886  C0000160   1.000000000000e+00
    X0001886  OBJ        1.000000000000e+00
    X0001887  C0000160   1.000000000000e+00
    X0001887  C0000167   1.000000000000e+00
    X0001887  OBJ        1.000000000000e+00
    X0001888  C0000160   1.000000000000e+00
    X0001888  C0000184   1.000000000000e+00
    X0001888  OBJ        1.000000000000e+00
    X0001889  C0000160   1.000000000000e+00
    X0001889  C0000188   1.000000000000e+00
    X0001889  OBJ        1.000000000000e+00
    X0001890  C0000160   1.000000000000e+00
    X0001890  C0000192   1.000000000000e+00
    X0001890  OBJ        1.000000000000e+00
    X0001891  C0000160   1.000000000000e+00
    X0001891  C0000287   1.000000000000e+00
    X0001891  OBJ        1.000000000000e+00
    X0001892  C0000160   1.000000000000e+00
    X0001892  C0000286   1.000000000000e+00
    X0001892  OBJ        1.000000000000e+00
    X0001893  C0000160   1.000000000000e+00
    X0001893  C0000288   1.000000000000e+00
    X0001893  OBJ        1.000000000000e+00
    X0001894  C0000032   1.000000000000e+00
    X0001894  C0000160   1.000000000000e+00
    X0001894  OBJ        1.000000000000e+00
    X0001895  C0000036   1.000000000000e+00
    X0001895  C0000160   1.000000000000e+00
    X0001895  OBJ        1.000000000000e+00
    X0001896  C0000040   1.000000000000e+00
    X0001896  C0000160   1.000000000000e+00
    X0001896  OBJ        1.000000000000e+00
    X0001897  C0000050   1.000000000000e+00
    X0001897  C0000160   1.000000000000e+00
    X0001897  OBJ        1.000000000000e+00
    X0001898  C0000160   1.000000000000e+00
    X0001898  C0000195   1.000000000000e+00
    X0001898  OBJ        1.000000000000e+00
    X0001899  C0000159   1.000000000000e+00
    X0001899  C0000160   1.000000000000e+00
    X0001899  OBJ        1.000000000000e+00
    X0001900  C0000160   1.000000000000e+00
    X0001900  C0000171   1.000000000000e+00
    X0001900  OBJ        1.000000000000e+00
    X0001901  C0000160   1.000000000000e+00
    X0001901  C0000163   1.000000000000e+00
    X0001901  OBJ        1.000000000000e+00
    X0001902  C0000136   1.000000000000e+00
    X0001902  C0000160   1.000000000000e+00
    X0001902  OBJ        1.000000000000e+00
    X0001903  C0000137   1.000000000000e+00
    X0001903  C0000160   1.000000000000e+00
    X0001903  OBJ        1.000000000000e+00
    X0001904  C0000134   1.000000000000e+00
    X0001904  C0000160   1.000000000000e+00
    X0001904  OBJ        1.000000000000e+00
    X0001905  C0000013   1.000000000000e+00
    X0001905  C0000160   1.000000000000e+00
    X0001905  OBJ        1.000000000000e+00
    X0001906  C0000014   1.000000000000e+00
    X0001906  C0000160   1.000000000000e+00
    X0001906  OBJ        1.000000000000e+00
    X0001907  C0000006   1.000000000000e+00
    X0001907  C0000160   1.000000000000e+00
    X0001907  OBJ        1.000000000000e+00
    X0001908  C0000109   1.000000000000e+00
    X0001908  C0000160   1.000000000000e+00
    X0001908  OBJ        1.000000000000e+00
    X0001909  C0000105   1.000000000000e+00
    X0001909  C0000160   1.000000000000e+00
    X0001909  OBJ        1.000000000000e+00
    X0001910  C0000103   1.000000000000e+00
    X0001910  C0000160   1.000000000000e+00
    X0001910  OBJ        1.000000000000e+00
    X0001911  C0000099   1.000000000000e+00
    X0001911  C0000160   1.000000000000e+00
    X0001911  OBJ        1.000000000000e+00
    X0001912  C0000097   1.000000000000e+00
    X0001912  C0000160   1.000000000000e+00
    X0001912  OBJ        1.000000000000e+00
    X0001913  C0000094   1.000000000000e+00
    X0001913  C0000160   1.000000000000e+00
    X0001913  OBJ        1.000000000000e+00
    X0001914  C0000054   1.000000000000e+00
    X0001914  C0000172   1.000000000000e+00
    X0001914  OBJ        1.000000000000e+00
    X0001915  C0000046   1.000000000000e+00
    X0001915  C0000172   1.000000000000e+00
    X0001915  OBJ        1.000000000000e+00
    X0001916  C0000172   1.000000000000e+00
    X0001916  C0000175   1.000000000000e+00
    X0001916  OBJ        1.000000000000e+00
    X0001917  C0000172   1.000000000000e+00
    X0001917  C0000182   1.000000000000e+00
    X0001917  OBJ        1.000000000000e+00
    X0001918  C0000172   1.000000000000e+00
    X0001918  C0000291   1.000000000000e+00
    X0001918  OBJ        1.000000000000e+00
    X0001919  C0000042   1.000000000000e+00
    X0001919  C0000172   1.000000000000e+00
    X0001919  OBJ        1.000000000000e+00
    X0001920  C0000053   1.000000000000e+00
    X0001920  C0000172   1.000000000000e+00
    X0001920  OBJ        1.000000000000e+00
    X0001921  C0000172   1.000000000000e+00
    X0001921  C0000179   1.000000000000e+00
    X0001921  OBJ        1.000000000000e+00
    X0001922  C0000135   1.000000000000e+00
    X0001922  C0000172   1.000000000000e+00
    X0001922  OBJ        1.000000000000e+00
    X0001923  C0000172   1.000000000000e+00
    X0001923  C0000184   1.000000000000e+00
    X0001923  OBJ        1.000000000000e+00
    X0001924  C0000172   1.000000000000e+00
    X0001924  C0000188   1.000000000000e+00
    X0001924  OBJ        1.000000000000e+00
    X0001925  C0000172   1.000000000000e+00
    X0001925  C0000192   1.000000000000e+00
    X0001925  OBJ        1.000000000000e+00
    X0001926  C0000172   1.000000000000e+00
    X0001926  C0000287   1.000000000000e+00
    X0001926  OBJ        1.000000000000e+00
    X0001927  C0000172   1.000000000000e+00
    X0001927  C0000286   1.000000000000e+00
    X0001927  OBJ        1.000000000000e+00
    X0001928  C0000172   1.000000000000e+00
    X0001928  C0000288   1.000000000000e+00
    X0001928  OBJ        1.000000000000e+00
    X0001929  C0000040   1.000000000000e+00
    X0001929  C0000172   1.000000000000e+00
    X0001929  OBJ        1.000000000000e+00
    X0001930  C0000050   1.000000000000e+00
    X0001930  C0000172   1.000000000000e+00
    X0001930  OBJ        1.000000000000e+00
    X0001931  C0000172   1.000000000000e+00
    X0001931  C0000195   1.000000000000e+00
    X0001931  OBJ        1.000000000000e+00
    X0001932  C0000171   1.000000000000e+00
    X0001932  C0000172   1.000000000000e+00
    X0001932  OBJ        1.000000000000e+00
    X0001933  C0000136   1.000000000000e+00
    X0001933  C0000172   1.000000000000e+00
    X0001933  OBJ        1.000000000000e+00
    X0001934  C0000137   1.000000000000e+00
    X0001934  C0000172   1.000000000000e+00
    X0001934  OBJ        1.000000000000e+00
    X0001935  C0000134   1.000000000000e+00
    X0001935  C0000172   1.000000000000e+00
    X0001935  OBJ        1.000000000000e+00
    X0001936  C0000013   1.000000000000e+00
    X0001936  C0000172   1.000000000000e+00
    X0001936  OBJ        1.000000000000e+00
    X0001937  C0000014   1.000000000000e+00
    X0001937  C0000172   1.000000000000e+00
    X0001937  OBJ        1.000000000000e+00
    X0001938  C0000006   1.000000000000e+00
    X0001938  C0000172   1.000000000000e+00
    X0001938  OBJ        1.000000000000e+00
    X0001939  C0000103   1.000000000000e+00
    X0001939  C0000172   1.000000000000e+00
    X0001939  OBJ        1.000000000000e+00
    X0001940  C0000099   1.000000000000e+00
    X0001940  C0000172   1.000000000000e+00
    X0001940  OBJ        1.000000000000e+00
    X0001941  C0000097   1.000000000000e+00
    X0001941  C0000172   1.000000000000e+00
    X0001941  OBJ        1.000000000000e+00
    X0001942  C0000094   1.000000000000e+00
    X0001942  C0000172   1.000000000000e+00
    X0001942  OBJ        1.000000000000e+00
    X0001943  C0000142   1.000000000000e+00
    X0001943  C0000169   1.000000000000e+00
    X0001943  OBJ        1.000000000000e+00
    X0001944  C0000142   1.000000000000e+00
    X0001944  C0000177   1.000000000000e+00
    X0001944  OBJ        1.000000000000e+00
    X0001945  C0000142   1.000000000000e+00
    X0001945  C0000235   1.000000000000e+00
    X0001945  OBJ        1.000000000000e+00
    X0001946  C0000142   1.000000000000e+00
    X0001946  C0000239   1.000000000000e+00
    X0001946  OBJ        1.000000000000e+00
    X0001947  C0000142   1.000000000000e+00
    X0001947  C0000243   1.000000000000e+00
    X0001947  OBJ        1.000000000000e+00
    X0001948  C0000142   1.000000000000e+00
    X0001948  C0000247   1.000000000000e+00
    X0001948  OBJ        1.000000000000e+00
    X0001949  C0000142   1.000000000000e+00
    X0001949  C0000251   1.000000000000e+00
    X0001949  OBJ        1.000000000000e+00
    X0001950  C0000142   1.000000000000e+00
    X0001950  C0000255   1.000000000000e+00
    X0001950  OBJ        1.000000000000e+00
    X0001951  C0000142   1.000000000000e+00
    X0001951  C0000259   1.000000000000e+00
    X0001951  OBJ        1.000000000000e+00
    X0001952  C0000142   1.000000000000e+00
    X0001952  C0000263   1.000000000000e+00
    X0001952  OBJ        1.000000000000e+00
    X0001953  C0000142   1.000000000000e+00
    X0001953  C0000267   1.000000000000e+00
    X0001953  OBJ        1.000000000000e+00
    X0001954  C0000142   1.000000000000e+00
    X0001954  C0000271   1.000000000000e+00
    X0001954  OBJ        1.000000000000e+00
    X0001955  C0000142   1.000000000000e+00
    X0001955  C0000275   1.000000000000e+00
    X0001955  OBJ        1.000000000000e+00
    X0001956  C0000142   1.000000000000e+00
    X0001956  C0000279   1.000000000000e+00
    X0001956  OBJ        1.000000000000e+00
    X0001957  C0000142   1.000000000000e+00
    X0001957  C0000281   1.000000000000e+00
    X0001957  OBJ        1.000000000000e+00
    X0001958  C0000142   1.000000000000e+00
    X0001958  C0000181   1.000000000000e+00
    X0001958  OBJ        1.000000000000e+00
    X0001959  C0000142   1.000000000000e+00
    X0001959  C0000186   1.000000000000e+00
    X0001959  OBJ        1.000000000000e+00
    X0001960  C0000142   1.000000000000e+00
    X0001960  C0000190   1.000000000000e+00
    X0001960  OBJ        1.000000000000e+00
    X0001961  C0000142   1.000000000000e+00
    X0001961  C0000194   1.000000000000e+00
    X0001961  OBJ        1.000000000000e+00
    X0001962  C0000142   1.000000000000e+00
    X0001962  C0000197   1.000000000000e+00
    X0001962  OBJ        1.000000000000e+00
    X0001963  C0000142   1.000000000000e+00
    X0001963  C0000173   1.000000000000e+00
    X0001963  OBJ        1.000000000000e+00
    X0001964  C0000150   1.000000000000e+00
    X0001964  C0000177   1.000000000000e+00
    X0001964  OBJ        1.000000000000e+00
    X0001965  C0000150   1.000000000000e+00
    X0001965  C0000243   1.000000000000e+00
    X0001965  OBJ        1.000000000000e+00
    X0001966  C0000150   1.000000000000e+00
    X0001966  C0000247   1.000000000000e+00
    X0001966  OBJ        1.000000000000e+00
    X0001967  C0000150   1.000000000000e+00
    X0001967  C0000251   1.000000000000e+00
    X0001967  OBJ        1.000000000000e+00
    X0001968  C0000150   1.000000000000e+00
    X0001968  C0000255   1.000000000000e+00
    X0001968  OBJ        1.000000000000e+00
    X0001969  C0000150   1.000000000000e+00
    X0001969  C0000259   1.000000000000e+00
    X0001969  OBJ        1.000000000000e+00
    X0001970  C0000150   1.000000000000e+00
    X0001970  C0000263   1.000000000000e+00
    X0001970  OBJ        1.000000000000e+00
    X0001971  C0000150   1.000000000000e+00
    X0001971  C0000267   1.000000000000e+00
    X0001971  OBJ        1.000000000000e+00
    X0001972  C0000150   1.000000000000e+00
    X0001972  C0000271   1.000000000000e+00
    X0001972  OBJ        1.000000000000e+00
    X0001973  C0000150   1.000000000000e+00
    X0001973  C0000275   1.000000000000e+00
    X0001973  OBJ        1.000000000000e+00
    X0001974  C0000150   1.000000000000e+00
    X0001974  C0000279   1.000000000000e+00
    X0001974  OBJ        1.000000000000e+00
    X0001975  C0000150   1.000000000000e+00
    X0001975  C0000281   1.000000000000e+00
    X0001975  OBJ        1.000000000000e+00
    X0001976  C0000150   1.000000000000e+00
    X0001976  C0000181   1.000000000000e+00
    X0001976  OBJ        1.000000000000e+00
    X0001977  C0000150   1.000000000000e+00
    X0001977  C0000186   1.000000000000e+00
    X0001977  OBJ        1.000000000000e+00
    X0001978  C0000150   1.000000000000e+00
    X0001978  C0000190   1.000000000000e+00
    X0001978  OBJ        1.000000000000e+00
    X0001979  C0000150   1.000000000000e+00
    X0001979  C0000194   1.000000000000e+00
    X0001979  OBJ        1.000000000000e+00
    X0001980  C0000150   1.000000000000e+00
    X0001980  C0000197   1.000000000000e+00
    X0001980  OBJ        1.000000000000e+00
    X0001981  C0000158   1.000000000000e+00
    X0001981  C0000251   1.000000000000e+00
    X0001981  OBJ        1.000000000000e+00
    X0001982  C0000158   1.000000000000e+00
    X0001982  C0000255   1.000000000000e+00
    X0001982  OBJ        1.000000000000e+00
    X0001983  C0000158   1.000000000000e+00
    X0001983  C0000259   1.000000000000e+00
    X0001983  OBJ        1.000000000000e+00
    X0001984  C0000158   1.000000000000e+00
    X0001984  C0000263   1.000000000000e+00
    X0001984  OBJ        1.000000000000e+00
    X0001985  C0000158   1.000000000000e+00
    X0001985  C0000267   1.000000000000e+00
    X0001985  OBJ        1.000000000000e+00
    X0001986  C0000158   1.000000000000e+00
    X0001986  C0000271   1.000000000000e+00
    X0001986  OBJ        1.000000000000e+00
    X0001987  C0000158   1.000000000000e+00
    X0001987  C0000275   1.000000000000e+00
    X0001987  OBJ        1.000000000000e+00
    X0001988  C0000158   1.000000000000e+00
    X0001988  C0000279   1.000000000000e+00
    X0001988  OBJ        1.000000000000e+00
    X0001989  C0000158   1.000000000000e+00
    X0001989  C0000281   1.000000000000e+00
    X0001989  OBJ        1.000000000000e+00
    X0001990  C0000158   1.000000000000e+00
    X0001990  C0000186   1.000000000000e+00
    X0001990  OBJ        1.000000000000e+00
    X0001991  C0000158   1.000000000000e+00
    X0001991  C0000190   1.000000000000e+00
    X0001991  OBJ        1.000000000000e+00
    X0001992  C0000158   1.000000000000e+00
    X0001992  C0000194   1.000000000000e+00
    X0001992  OBJ        1.000000000000e+00
    X0001993  C0000158   1.000000000000e+00
    X0001993  C0000197   1.000000000000e+00
    X0001993  OBJ        1.000000000000e+00
    X0001994  C0000170   1.000000000000e+00
    X0001994  C0000263   1.000000000000e+00
    X0001994  OBJ        1.000000000000e+00
    X0001995  C0000170   1.000000000000e+00
    X0001995  C0000267   1.000000000000e+00
    X0001995  OBJ        1.000000000000e+00
    X0001996  C0000170   1.000000000000e+00
    X0001996  C0000271   1.000000000000e+00
    X0001996  OBJ        1.000000000000e+00
    X0001997  C0000170   1.000000000000e+00
    X0001997  C0000275   1.000000000000e+00
    X0001997  OBJ        1.000000000000e+00
    X0001998  C0000170   1.000000000000e+00
    X0001998  C0000279   1.000000000000e+00
    X0001998  OBJ        1.000000000000e+00
    X0001999  C0000170   1.000000000000e+00
    X0001999  C0000281   1.000000000000e+00
    X0001999  OBJ        1.000000000000e+00
    X0002000  C0000170   1.000000000000e+00
    X0002000  C0000197   1.000000000000e+00
    X0002000  OBJ        1.000000000000e+00
    X0002001  C0000162   1.000000000000e+00
    X0002001  C0000255   1.000000000000e+00
    X0002001  OBJ        1.000000000000e+00
    X0002002  C0000162   1.000000000000e+00
    X0002002  C0000259   1.000000000000e+00
    X0002002  OBJ        1.000000000000e+00
    X0002003  C0000162   1.000000000000e+00
    X0002003  C0000263   1.000000000000e+00
    X0002003  OBJ        1.000000000000e+00
    X0002004  C0000162   1.000000000000e+00
    X0002004  C0000267   1.000000000000e+00
    X0002004  OBJ        1.000000000000e+00
    X0002005  C0000162   1.000000000000e+00
    X0002005  C0000271   1.000000000000e+00
    X0002005  OBJ        1.000000000000e+00
    X0002006  C0000162   1.000000000000e+00
    X0002006  C0000275   1.000000000000e+00
    X0002006  OBJ        1.000000000000e+00
    X0002007  C0000162   1.000000000000e+00
    X0002007  C0000279   1.000000000000e+00
    X0002007  OBJ        1.000000000000e+00
    X0002008  C0000162   1.000000000000e+00
    X0002008  C0000281   1.000000000000e+00
    X0002008  OBJ        1.000000000000e+00
    X0002009  C0000162   1.000000000000e+00
    X0002009  C0000190   1.000000000000e+00
    X0002009  OBJ        1.000000000000e+00
    X0002010  C0000162   1.000000000000e+00
    X0002010  C0000194   1.000000000000e+00
    X0002010  OBJ        1.000000000000e+00
    X0002011  C0000162   1.000000000000e+00
    X0002011  C0000197   1.000000000000e+00
    X0002011  OBJ        1.000000000000e+00
    X0002012  C0000054   1.000000000000e+00
    X0002012  C0000129   1.000000000000e+00
    X0002012  OBJ        1.000000000000e+00
    X0002013  C0000129   1.000000000000e+00
    X0002013  C0000295   1.000000000000e+00
    X0002013  OBJ        1.000000000000e+00
    X0002014  C0000046   1.000000000000e+00
    X0002014  C0000129   1.000000000000e+00
    X0002014  OBJ        1.000000000000e+00
    X0002015  C0000026   1.000000000000e+00
    X0002015  C0000129   1.000000000000e+00
    X0002015  OBJ        1.000000000000e+00
    X0002016  C0000129   1.000000000000e+00
    X0002016  C0000140   1.000000000000e+00
    X0002016  OBJ        1.000000000000e+00
    X0002017  C0000129   1.000000000000e+00
    X0002017  C0000175   1.000000000000e+00
    X0002017  OBJ        1.000000000000e+00
    X0002018  C0000129   1.000000000000e+00
    X0002018  C0000182   1.000000000000e+00
    X0002018  OBJ        1.000000000000e+00
    X0002019  C0000129   1.000000000000e+00
    X0002019  C0000291   1.000000000000e+00
    X0002019  OBJ        1.000000000000e+00
    X0002020  C0000018   1.000000000000e+00
    X0002020  C0000129   1.000000000000e+00
    X0002020  OBJ        1.000000000000e+00
    X0002021  C0000042   1.000000000000e+00
    X0002021  C0000129   1.000000000000e+00
    X0002021  OBJ        1.000000000000e+00
    X0002022  C0000053   1.000000000000e+00
    X0002022  C0000129   1.000000000000e+00
    X0002022  OBJ        1.000000000000e+00
    X0002023  C0000129   1.000000000000e+00
    X0002023  C0000146   1.000000000000e+00
    X0002023  OBJ        1.000000000000e+00
    X0002024  C0000129   1.000000000000e+00
    X0002024  C0000179   1.000000000000e+00
    X0002024  OBJ        1.000000000000e+00
    X0002025  C0000128   1.000000000000e+00
    X0002025  C0000129   1.000000000000e+00
    X0002025  OBJ        1.000000000000e+00
    X0002026  C0000129   1.000000000000e+00
    X0002026  C0000135   1.000000000000e+00
    X0002026  OBJ        1.000000000000e+00
    X0002027  C0000111   1.000000000000e+00
    X0002027  C0000129   1.000000000000e+00
    X0002027  OBJ        1.000000000000e+00
    X0002028  C0000012   1.000000000000e+00
    X0002028  C0000129   1.000000000000e+00
    X0002028  OBJ        1.000000000000e+00
    X0002029  C0000129   1.000000000000e+00
    X0002029  C0000155   1.000000000000e+00
    X0002029  OBJ        1.000000000000e+00
    X0002030  C0000129   1.000000000000e+00
    X0002030  C0000167   1.000000000000e+00
    X0002030  OBJ        1.000000000000e+00
    X0002031  C0000129   1.000000000000e+00
    X0002031  C0000184   1.000000000000e+00
    X0002031  OBJ        1.000000000000e+00
    X0002032  C0000129   1.000000000000e+00
    X0002032  C0000188   1.000000000000e+00
    X0002032  OBJ        1.000000000000e+00
    X0002033  C0000129   1.000000000000e+00
    X0002033  C0000192   1.000000000000e+00
    X0002033  OBJ        1.000000000000e+00
    X0002034  C0000129   1.000000000000e+00
    X0002034  C0000304   1.000000000000e+00
    X0002034  OBJ        1.000000000000e+00
    X0002035  C0000129   1.000000000000e+00
    X0002035  C0000285   1.000000000000e+00
    X0002035  OBJ        1.000000000000e+00
    X0002036  C0000129   1.000000000000e+00
    X0002036  C0000287   1.000000000000e+00
    X0002036  OBJ        1.000000000000e+00
    X0002037  C0000129   1.000000000000e+00
    X0002037  C0000286   1.000000000000e+00
    X0002037  OBJ        1.000000000000e+00
    X0002038  C0000129   1.000000000000e+00
    X0002038  C0000298   1.000000000000e+00
    X0002038  OBJ        1.000000000000e+00
    X0002039  C0000129   1.000000000000e+00
    X0002039  C0000288   1.000000000000e+00
    X0002039  OBJ        1.000000000000e+00
    X0002040  C0000032   1.000000000000e+00
    X0002040  C0000129   1.000000000000e+00
    X0002040  OBJ        1.000000000000e+00
    X0002041  C0000036   1.000000000000e+00
    X0002041  C0000129   1.000000000000e+00
    X0002041  OBJ        1.000000000000e+00
    X0002042  C0000040   1.000000000000e+00
    X0002042  C0000129   1.000000000000e+00
    X0002042  OBJ        1.000000000000e+00
    X0002043  C0000022   1.000000000000e+00
    X0002043  C0000129   1.000000000000e+00
    X0002043  OBJ        1.000000000000e+00
    X0002044  C0000030   1.000000000000e+00
    X0002044  C0000129   1.000000000000e+00
    X0002044  OBJ        1.000000000000e+00
    X0002045  C0000050   1.000000000000e+00
    X0002045  C0000129   1.000000000000e+00
    X0002045  OBJ        1.000000000000e+00
    X0002046  C0000129   1.000000000000e+00
    X0002046  C0000143   1.000000000000e+00
    X0002046  OBJ        1.000000000000e+00
    X0002047  C0000129   1.000000000000e+00
    X0002047  C0000151   1.000000000000e+00
    X0002047  OBJ        1.000000000000e+00
    X0002048  C0000129   1.000000000000e+00
    X0002048  C0000195   1.000000000000e+00
    X0002048  OBJ        1.000000000000e+00
    X0002049  C0000129   1.000000000000e+00
    X0002049  C0000159   1.000000000000e+00
    X0002049  OBJ        1.000000000000e+00
    X0002050  C0000129   1.000000000000e+00
    X0002050  C0000171   1.000000000000e+00
    X0002050  OBJ        1.000000000000e+00
    X0002051  C0000129   1.000000000000e+00
    X0002051  C0000163   1.000000000000e+00
    X0002051  OBJ        1.000000000000e+00
    X0002052  C0000129   1.000000000000e+00
    X0002052  C0000136   1.000000000000e+00
    X0002052  OBJ        1.000000000000e+00
    X0002053  C0000129   1.000000000000e+00
    X0002053  C0000137   1.000000000000e+00
    X0002053  OBJ        1.000000000000e+00
    X0002054  C0000129   1.000000000000e+00
    X0002054  C0000134   1.000000000000e+00
    X0002054  OBJ        1.000000000000e+00
    X0002055  C0000001   1.000000000000e+00
    X0002055  C0000129   1.000000000000e+00
    X0002055  OBJ        1.000000000000e+00
    X0002056  C0000013   1.000000000000e+00
    X0002056  C0000129   1.000000000000e+00
    X0002056  OBJ        1.000000000000e+00
    X0002057  C0000014   1.000000000000e+00
    X0002057  C0000129   1.000000000000e+00
    X0002057  OBJ        1.000000000000e+00
    X0002058  C0000016   1.000000000000e+00
    X0002058  C0000129   1.000000000000e+00
    X0002058  OBJ        1.000000000000e+00
    X0002059  C0000006   1.000000000000e+00
    X0002059  C0000129   1.000000000000e+00
    X0002059  OBJ        1.000000000000e+00
    X0002060  C0000109   1.000000000000e+00
    X0002060  C0000129   1.000000000000e+00
    X0002060  OBJ        1.000000000000e+00
    X0002061  C0000105   1.000000000000e+00
    X0002061  C0000129   1.000000000000e+00
    X0002061  OBJ        1.000000000000e+00
    X0002062  C0000103   1.000000000000e+00
    X0002062  C0000129   1.000000000000e+00
    X0002062  OBJ        1.000000000000e+00
    X0002063  C0000125   1.000000000000e+00
    X0002063  C0000129   1.000000000000e+00
    X0002063  OBJ        1.000000000000e+00
    X0002064  C0000099   1.000000000000e+00
    X0002064  C0000129   1.000000000000e+00
    X0002064  OBJ        1.000000000000e+00
    X0002065  C0000121   1.000000000000e+00
    X0002065  C0000129   1.000000000000e+00
    X0002065  OBJ        1.000000000000e+00
    X0002066  C0000117   1.000000000000e+00
    X0002066  C0000129   1.000000000000e+00
    X0002066  OBJ        1.000000000000e+00
    X0002067  C0000097   1.000000000000e+00
    X0002067  C0000129   1.000000000000e+00
    X0002067  OBJ        1.000000000000e+00
    X0002068  C0000094   1.000000000000e+00
    X0002068  C0000129   1.000000000000e+00
    X0002068  OBJ        1.000000000000e+00
    X0002069  C0000054   1.000000000000e+00
    X0002069  C0000130   1.000000000000e+00
    X0002069  OBJ        1.000000000000e+00
    X0002070  C0000130   1.000000000000e+00
    X0002070  C0000295   1.000000000000e+00
    X0002070  OBJ        1.000000000000e+00
    X0002071  C0000046   1.000000000000e+00
    X0002071  C0000130   1.000000000000e+00
    X0002071  OBJ        1.000000000000e+00
    X0002072  C0000026   1.000000000000e+00
    X0002072  C0000130   1.000000000000e+00
    X0002072  OBJ        1.000000000000e+00
    X0002073  C0000130   1.000000000000e+00
    X0002073  C0000175   1.000000000000e+00
    X0002073  OBJ        1.000000000000e+00
    X0002074  C0000130   1.000000000000e+00
    X0002074  C0000182   1.000000000000e+00
    X0002074  OBJ        1.000000000000e+00
    X0002075  C0000130   1.000000000000e+00
    X0002075  C0000291   1.000000000000e+00
    X0002075  OBJ        1.000000000000e+00
    X0002076  C0000042   1.000000000000e+00
    X0002076  C0000130   1.000000000000e+00
    X0002076  OBJ        1.000000000000e+00
    X0002077  C0000053   1.000000000000e+00
    X0002077  C0000130   1.000000000000e+00
    X0002077  OBJ        1.000000000000e+00
    X0002078  C0000130   1.000000000000e+00
    X0002078  C0000146   1.000000000000e+00
    X0002078  OBJ        1.000000000000e+00
    X0002079  C0000130   1.000000000000e+00
    X0002079  C0000179   1.000000000000e+00
    X0002079  OBJ        1.000000000000e+00
    X0002080  C0000128   1.000000000000e+00
    X0002080  C0000130   1.000000000000e+00
    X0002080  OBJ        1.000000000000e+00
    X0002081  C0000130   1.000000000000e+00
    X0002081  C0000135   1.000000000000e+00
    X0002081  OBJ        1.000000000000e+00
    X0002082  C0000111   1.000000000000e+00
    X0002082  C0000130   1.000000000000e+00
    X0002082  OBJ        1.000000000000e+00
    X0002083  C0000012   1.000000000000e+00
    X0002083  C0000130   1.000000000000e+00
    X0002083  OBJ        1.000000000000e+00
    X0002084  C0000130   1.000000000000e+00
    X0002084  C0000155   1.000000000000e+00
    X0002084  OBJ        1.000000000000e+00
    X0002085  C0000130   1.000000000000e+00
    X0002085  C0000167   1.000000000000e+00
    X0002085  OBJ        1.000000000000e+00
    X0002086  C0000130   1.000000000000e+00
    X0002086  C0000184   1.000000000000e+00
    X0002086  OBJ        1.000000000000e+00
    X0002087  C0000130   1.000000000000e+00
    X0002087  C0000188   1.000000000000e+00
    X0002087  OBJ        1.000000000000e+00
    X0002088  C0000130   1.000000000000e+00
    X0002088  C0000192   1.000000000000e+00
    X0002088  OBJ        1.000000000000e+00
    X0002089  C0000130   1.000000000000e+00
    X0002089  C0000304   1.000000000000e+00
    X0002089  OBJ        1.000000000000e+00
    X0002090  C0000130   1.000000000000e+00
    X0002090  C0000287   1.000000000000e+00
    X0002090  OBJ        1.000000000000e+00
    X0002091  C0000130   1.000000000000e+00
    X0002091  C0000286   1.000000000000e+00
    X0002091  OBJ        1.000000000000e+00
    X0002092  C0000130   1.000000000000e+00
    X0002092  C0000298   1.000000000000e+00
    X0002092  OBJ        1.000000000000e+00
    X0002093  C0000130   1.000000000000e+00
    X0002093  C0000288   1.000000000000e+00
    X0002093  OBJ        1.000000000000e+00
    X0002094  C0000032   1.000000000000e+00
    X0002094  C0000130   1.000000000000e+00
    X0002094  OBJ        1.000000000000e+00
    X0002095  C0000036   1.000000000000e+00
    X0002095  C0000130   1.000000000000e+00
    X0002095  OBJ        1.000000000000e+00
    X0002096  C0000040   1.000000000000e+00
    X0002096  C0000130   1.000000000000e+00
    X0002096  OBJ        1.000000000000e+00
    X0002097  C0000022   1.000000000000e+00
    X0002097  C0000130   1.000000000000e+00
    X0002097  OBJ        1.000000000000e+00
    X0002098  C0000030   1.000000000000e+00
    X0002098  C0000130   1.000000000000e+00
    X0002098  OBJ        1.000000000000e+00
    X0002099  C0000050   1.000000000000e+00
    X0002099  C0000130   1.000000000000e+00
    X0002099  OBJ        1.000000000000e+00
    X0002100  C0000130   1.000000000000e+00
    X0002100  C0000143   1.000000000000e+00
    X0002100  OBJ        1.000000000000e+00
    X0002101  C0000130   1.000000000000e+00
    X0002101  C0000151   1.000000000000e+00
    X0002101  OBJ        1.000000000000e+00
    X0002102  C0000130   1.000000000000e+00
    X0002102  C0000195   1.000000000000e+00
    X0002102  OBJ        1.000000000000e+00
    X0002103  C0000130   1.000000000000e+00
    X0002103  C0000159   1.000000000000e+00
    X0002103  OBJ        1.000000000000e+00
    X0002104  C0000130   1.000000000000e+00
    X0002104  C0000171   1.000000000000e+00
    X0002104  OBJ        1.000000000000e+00
    X0002105  C0000130   1.000000000000e+00
    X0002105  C0000163   1.000000000000e+00
    X0002105  OBJ        1.000000000000e+00
    X0002106  C0000130   1.000000000000e+00
    X0002106  C0000136   1.000000000000e+00
    X0002106  OBJ        1.000000000000e+00
    X0002107  C0000130   1.000000000000e+00
    X0002107  C0000137   1.000000000000e+00
    X0002107  OBJ        1.000000000000e+00
    X0002108  C0000130   1.000000000000e+00
    X0002108  C0000134   1.000000000000e+00
    X0002108  OBJ        1.000000000000e+00
    X0002109  C0000001   1.000000000000e+00
    X0002109  C0000130   1.000000000000e+00
    X0002109  OBJ        1.000000000000e+00
    X0002110  C0000013   1.000000000000e+00
    X0002110  C0000130   1.000000000000e+00
    X0002110  OBJ        1.000000000000e+00
    X0002111  C0000014   1.000000000000e+00
    X0002111  C0000130   1.000000000000e+00
    X0002111  OBJ        1.000000000000e+00
    X0002112  C0000016   1.000000000000e+00
    X0002112  C0000130   1.000000000000e+00
    X0002112  OBJ        1.000000000000e+00
    X0002113  C0000006   1.000000000000e+00
    X0002113  C0000130   1.000000000000e+00
    X0002113  OBJ        1.000000000000e+00
    X0002114  C0000109   1.000000000000e+00
    X0002114  C0000130   1.000000000000e+00
    X0002114  OBJ        1.000000000000e+00
    X0002115  C0000105   1.000000000000e+00
    X0002115  C0000130   1.000000000000e+00
    X0002115  OBJ        1.000000000000e+00
    X0002116  C0000103   1.000000000000e+00
    X0002116  C0000130   1.000000000000e+00
    X0002116  OBJ        1.000000000000e+00
    X0002117  C0000099   1.000000000000e+00
    X0002117  C0000130   1.000000000000e+00
    X0002117  OBJ        1.000000000000e+00
    X0002118  C0000121   1.000000000000e+00
    X0002118  C0000130   1.000000000000e+00
    X0002118  OBJ        1.000000000000e+00
    X0002119  C0000117   1.000000000000e+00
    X0002119  C0000130   1.000000000000e+00
    X0002119  OBJ        1.000000000000e+00
    X0002120  C0000097   1.000000000000e+00
    X0002120  C0000130   1.000000000000e+00
    X0002120  OBJ        1.000000000000e+00
    X0002121  C0000094   1.000000000000e+00
    X0002121  C0000130   1.000000000000e+00
    X0002121  OBJ        1.000000000000e+00
    X0002122  C0000054   1.000000000000e+00
    X0002122  C0000138   1.000000000000e+00
    X0002122  OBJ        1.000000000000e+00
    X0002123  C0000138   1.000000000000e+00
    X0002123  C0000295   1.000000000000e+00
    X0002123  OBJ        1.000000000000e+00
    X0002124  C0000046   1.000000000000e+00
    X0002124  C0000138   1.000000000000e+00
    X0002124  OBJ        1.000000000000e+00
    X0002125  C0000026   1.000000000000e+00
    X0002125  C0000138   1.000000000000e+00
    X0002125  OBJ        1.000000000000e+00
    X0002126  C0000138   1.000000000000e+00
    X0002126  C0000175   1.000000000000e+00
    X0002126  OBJ        1.000000000000e+00
    X0002127  C0000138   1.000000000000e+00
    X0002127  C0000182   1.000000000000e+00
    X0002127  OBJ        1.000000000000e+00
    X0002128  C0000138   1.000000000000e+00
    X0002128  C0000291   1.000000000000e+00
    X0002128  OBJ        1.000000000000e+00
    X0002129  C0000042   1.000000000000e+00
    X0002129  C0000138   1.000000000000e+00
    X0002129  OBJ        1.000000000000e+00
    X0002130  C0000053   1.000000000000e+00
    X0002130  C0000138   1.000000000000e+00
    X0002130  OBJ        1.000000000000e+00
    X0002131  C0000138   1.000000000000e+00
    X0002131  C0000179   1.000000000000e+00
    X0002131  OBJ        1.000000000000e+00
    X0002132  C0000128   1.000000000000e+00
    X0002132  C0000138   1.000000000000e+00
    X0002132  OBJ        1.000000000000e+00
    X0002133  C0000135   1.000000000000e+00
    X0002133  C0000138   1.000000000000e+00
    X0002133  OBJ        1.000000000000e+00
    X0002134  C0000111   1.000000000000e+00
    X0002134  C0000138   1.000000000000e+00
    X0002134  OBJ        1.000000000000e+00
    X0002135  C0000012   1.000000000000e+00
    X0002135  C0000138   1.000000000000e+00
    X0002135  OBJ        1.000000000000e+00
    X0002136  C0000138   1.000000000000e+00
    X0002136  C0000155   1.000000000000e+00
    X0002136  OBJ        1.000000000000e+00
    X0002137  C0000138   1.000000000000e+00
    X0002137  C0000167   1.000000000000e+00
    X0002137  OBJ        1.000000000000e+00
    X0002138  C0000138   1.000000000000e+00
    X0002138  C0000184   1.000000000000e+00
    X0002138  OBJ        1.000000000000e+00
    X0002139  C0000138   1.000000000000e+00
    X0002139  C0000188   1.000000000000e+00
    X0002139  OBJ        1.000000000000e+00
    X0002140  C0000138   1.000000000000e+00
    X0002140  C0000192   1.000000000000e+00
    X0002140  OBJ        1.000000000000e+00
    X0002141  C0000138   1.000000000000e+00
    X0002141  C0000287   1.000000000000e+00
    X0002141  OBJ        1.000000000000e+00
    X0002142  C0000138   1.000000000000e+00
    X0002142  C0000286   1.000000000000e+00
    X0002142  OBJ        1.000000000000e+00
    X0002143  C0000138   1.000000000000e+00
    X0002143  C0000298   1.000000000000e+00
    X0002143  OBJ        1.000000000000e+00
    X0002144  C0000138   1.000000000000e+00
    X0002144  C0000288   1.000000000000e+00
    X0002144  OBJ        1.000000000000e+00
    X0002145  C0000032   1.000000000000e+00
    X0002145  C0000138   1.000000000000e+00
    X0002145  OBJ        1.000000000000e+00
    X0002146  C0000036   1.000000000000e+00
    X0002146  C0000138   1.000000000000e+00
    X0002146  OBJ        1.000000000000e+00
    X0002147  C0000040   1.000000000000e+00
    X0002147  C0000138   1.000000000000e+00
    X0002147  OBJ        1.000000000000e+00
    X0002148  C0000030   1.000000000000e+00
    X0002148  C0000138   1.000000000000e+00
    X0002148  OBJ        1.000000000000e+00
    X0002149  C0000050   1.000000000000e+00
    X0002149  C0000138   1.000000000000e+00
    X0002149  OBJ        1.000000000000e+00
    X0002150  C0000138   1.000000000000e+00
    X0002150  C0000151   1.000000000000e+00
    X0002150  OBJ        1.000000000000e+00
    X0002151  C0000138   1.000000000000e+00
    X0002151  C0000195   1.000000000000e+00
    X0002151  OBJ        1.000000000000e+00
    X0002152  C0000138   1.000000000000e+00
    X0002152  C0000159   1.000000000000e+00
    X0002152  OBJ        1.000000000000e+00
    X0002153  C0000138   1.000000000000e+00
    X0002153  C0000171   1.000000000000e+00
    X0002153  OBJ        1.000000000000e+00
    X0002154  C0000138   1.000000000000e+00
    X0002154  C0000163   1.000000000000e+00
    X0002154  OBJ        1.000000000000e+00
    X0002155  C0000136   1.000000000000e+00
    X0002155  C0000138   1.000000000000e+00
    X0002155  OBJ        1.000000000000e+00
    X0002156  C0000137   1.000000000000e+00
    X0002156  C0000138   1.000000000000e+00
    X0002156  OBJ        1.000000000000e+00
    X0002157  C0000134   1.000000000000e+00
    X0002157  C0000138   1.000000000000e+00
    X0002157  OBJ        1.000000000000e+00
    X0002158  C0000013   1.000000000000e+00
    X0002158  C0000138   1.000000000000e+00
    X0002158  OBJ        1.000000000000e+00
    X0002159  C0000014   1.000000000000e+00
    X0002159  C0000138   1.000000000000e+00
    X0002159  OBJ        1.000000000000e+00
    X0002160  C0000016   1.000000000000e+00
    X0002160  C0000138   1.000000000000e+00
    X0002160  OBJ        1.000000000000e+00
    X0002161  C0000006   1.000000000000e+00
    X0002161  C0000138   1.000000000000e+00
    X0002161  OBJ        1.000000000000e+00
    X0002162  C0000109   1.000000000000e+00
    X0002162  C0000138   1.000000000000e+00
    X0002162  OBJ        1.000000000000e+00
    X0002163  C0000105   1.000000000000e+00
    X0002163  C0000138   1.000000000000e+00
    X0002163  OBJ        1.000000000000e+00
    X0002164  C0000103   1.000000000000e+00
    X0002164  C0000138   1.000000000000e+00
    X0002164  OBJ        1.000000000000e+00
    X0002165  C0000099   1.000000000000e+00
    X0002165  C0000138   1.000000000000e+00
    X0002165  OBJ        1.000000000000e+00
    X0002166  C0000097   1.000000000000e+00
    X0002166  C0000138   1.000000000000e+00
    X0002166  OBJ        1.000000000000e+00
    X0002167  C0000094   1.000000000000e+00
    X0002167  C0000138   1.000000000000e+00
    X0002167  OBJ        1.000000000000e+00
    X0002168  C0000054   1.000000000000e+00
    X0002168  C0000132   1.000000000000e+00
    X0002168  OBJ        1.000000000000e+00
    X0002169  C0000046   1.000000000000e+00
    X0002169  C0000132   1.000000000000e+00
    X0002169  OBJ        1.000000000000e+00
    X0002170  C0000132   1.000000000000e+00
    X0002170  C0000175   1.000000000000e+00
    X0002170  OBJ        1.000000000000e+00
    X0002171  C0000132   1.000000000000e+00
    X0002171  C0000182   1.000000000000e+00
    X0002171  OBJ        1.000000000000e+00
    X0002172  C0000042   1.000000000000e+00
    X0002172  C0000132   1.000000000000e+00
    X0002172  OBJ        1.000000000000e+00
    X0002173  C0000053   1.000000000000e+00
    X0002173  C0000132   1.000000000000e+00
    X0002173  OBJ        1.000000000000e+00
    X0002174  C0000132   1.000000000000e+00
    X0002174  C0000179   1.000000000000e+00
    X0002174  OBJ        1.000000000000e+00
    X0002175  C0000132   1.000000000000e+00
    X0002175  C0000135   1.000000000000e+00
    X0002175  OBJ        1.000000000000e+00
    X0002176  C0000132   1.000000000000e+00
    X0002176  C0000184   1.000000000000e+00
    X0002176  OBJ        1.000000000000e+00
    X0002177  C0000132   1.000000000000e+00
    X0002177  C0000188   1.000000000000e+00
    X0002177  OBJ        1.000000000000e+00
    X0002178  C0000132   1.000000000000e+00
    X0002178  C0000192   1.000000000000e+00
    X0002178  OBJ        1.000000000000e+00
    X0002179  C0000132   1.000000000000e+00
    X0002179  C0000287   1.000000000000e+00
    X0002179  OBJ        1.000000000000e+00
    X0002180  C0000132   1.000000000000e+00
    X0002180  C0000286   1.000000000000e+00
    X0002180  OBJ        1.000000000000e+00
    X0002181  C0000132   1.000000000000e+00
    X0002181  C0000288   1.000000000000e+00
    X0002181  OBJ        1.000000000000e+00
    X0002182  C0000050   1.000000000000e+00
    X0002182  C0000132   1.000000000000e+00
    X0002182  OBJ        1.000000000000e+00
    X0002183  C0000132   1.000000000000e+00
    X0002183  C0000195   1.000000000000e+00
    X0002183  OBJ        1.000000000000e+00
    X0002184  C0000132   1.000000000000e+00
    X0002184  C0000136   1.000000000000e+00
    X0002184  OBJ        1.000000000000e+00
    X0002185  C0000132   1.000000000000e+00
    X0002185  C0000137   1.000000000000e+00
    X0002185  OBJ        1.000000000000e+00
    X0002186  C0000132   1.000000000000e+00
    X0002186  C0000134   1.000000000000e+00
    X0002186  OBJ        1.000000000000e+00
    X0002187  C0000013   1.000000000000e+00
    X0002187  C0000132   1.000000000000e+00
    X0002187  OBJ        1.000000000000e+00
    X0002188  C0000014   1.000000000000e+00
    X0002188  C0000132   1.000000000000e+00
    X0002188  OBJ        1.000000000000e+00
    X0002189  C0000006   1.000000000000e+00
    X0002189  C0000132   1.000000000000e+00
    X0002189  OBJ        1.000000000000e+00
    X0002190  C0000099   1.000000000000e+00
    X0002190  C0000132   1.000000000000e+00
    X0002190  OBJ        1.000000000000e+00
    X0002191  C0000097   1.000000000000e+00
    X0002191  C0000132   1.000000000000e+00
    X0002191  OBJ        1.000000000000e+00
    X0002192  C0000094   1.000000000000e+00
    X0002192  C0000132   1.000000000000e+00
    X0002192  OBJ        1.000000000000e+00
    X0002193  C0000002   1.000000000000e+00
    X0002193  C0000054   1.000000000000e+00
    X0002193  OBJ        1.000000000000e+00
    X0002194  C0000002   1.000000000000e+00
    X0002194  C0000295   1.000000000000e+00
    X0002194  OBJ        1.000000000000e+00
    X0002195  C0000002   1.000000000000e+00
    X0002195  C0000046   1.000000000000e+00
    X0002195  OBJ        1.000000000000e+00
    X0002196  C0000002   1.000000000000e+00
    X0002196  C0000026   1.000000000000e+00
    X0002196  OBJ        1.000000000000e+00
    X0002197  C0000002   1.000000000000e+00
    X0002197  C0000175   1.000000000000e+00
    X0002197  OBJ        1.000000000000e+00
    X0002198  C0000002   1.000000000000e+00
    X0002198  C0000182   1.000000000000e+00
    X0002198  OBJ        1.000000000000e+00
    X0002199  C0000002   1.000000000000e+00
    X0002199  C0000291   1.000000000000e+00
    X0002199  OBJ        1.000000000000e+00
    X0002200  C0000002   1.000000000000e+00
    X0002200  C0000042   1.000000000000e+00
    X0002200  OBJ        1.000000000000e+00
    X0002201  C0000002   1.000000000000e+00
    X0002201  C0000053   1.000000000000e+00
    X0002201  OBJ        1.000000000000e+00
    X0002202  C0000002   1.000000000000e+00
    X0002202  C0000146   1.000000000000e+00
    X0002202  OBJ        1.000000000000e+00
    X0002203  C0000002   1.000000000000e+00
    X0002203  C0000179   1.000000000000e+00
    X0002203  OBJ        1.000000000000e+00
    X0002204  C0000002   1.000000000000e+00
    X0002204  C0000128   1.000000000000e+00
    X0002204  OBJ        1.000000000000e+00
    X0002205  C0000002   1.000000000000e+00
    X0002205  C0000135   1.000000000000e+00
    X0002205  OBJ        1.000000000000e+00
    X0002206  C0000002   1.000000000000e+00
    X0002206  C0000111   1.000000000000e+00
    X0002206  OBJ        1.000000000000e+00
    X0002207  C0000002   1.000000000000e+00
    X0002207  C0000012   1.000000000000e+00
    X0002207  OBJ        1.000000000000e+00
    X0002208  C0000002   1.000000000000e+00
    X0002208  C0000155   1.000000000000e+00
    X0002208  OBJ        1.000000000000e+00
    X0002209  C0000002   1.000000000000e+00
    X0002209  C0000167   1.000000000000e+00
    X0002209  OBJ        1.000000000000e+00
    X0002210  C0000002   1.000000000000e+00
    X0002210  C0000184   1.000000000000e+00
    X0002210  OBJ        1.000000000000e+00
    X0002211  C0000002   1.000000000000e+00
    X0002211  C0000188   1.000000000000e+00
    X0002211  OBJ        1.000000000000e+00
    X0002212  C0000002   1.000000000000e+00
    X0002212  C0000192   1.000000000000e+00
    X0002212  OBJ        1.000000000000e+00
    X0002213  C0000002   1.000000000000e+00
    X0002213  C0000304   1.000000000000e+00
    X0002213  OBJ        1.000000000000e+00
    X0002214  C0000002   1.000000000000e+00
    X0002214  C0000287   1.000000000000e+00
    X0002214  OBJ        1.000000000000e+00
    X0002215  C0000002   1.000000000000e+00
    X0002215  C0000286   1.000000000000e+00
    X0002215  OBJ        1.000000000000e+00
    X0002216  C0000002   1.000000000000e+00
    X0002216  C0000298   1.000000000000e+00
    X0002216  OBJ        1.000000000000e+00
    X0002217  C0000002   1.000000000000e+00
    X0002217  C0000288   1.000000000000e+00
    X0002217  OBJ        1.000000000000e+00
    X0002218  C0000002   1.000000000000e+00
    X0002218  C0000032   1.000000000000e+00
    X0002218  OBJ        1.000000000000e+00
    X0002219  C0000002   1.000000000000e+00
    X0002219  C0000036   1.000000000000e+00
    X0002219  OBJ        1.000000000000e+00
    X0002220  C0000002   1.000000000000e+00
    X0002220  C0000040   1.000000000000e+00
    X0002220  OBJ        1.000000000000e+00
    X0002221  C0000002   1.000000000000e+00
    X0002221  C0000022   1.000000000000e+00
    X0002221  OBJ        1.000000000000e+00
    X0002222  C0000002   1.000000000000e+00
    X0002222  C0000030   1.000000000000e+00
    X0002222  OBJ        1.000000000000e+00
    X0002223  C0000002   1.000000000000e+00
    X0002223  C0000050   1.000000000000e+00
    X0002223  OBJ        1.000000000000e+00
    X0002224  C0000002   1.000000000000e+00
    X0002224  C0000143   1.000000000000e+00
    X0002224  OBJ        1.000000000000e+00
    X0002225  C0000002   1.000000000000e+00
    X0002225  C0000151   1.000000000000e+00
    X0002225  OBJ        1.000000000000e+00
    X0002226  C0000002   1.000000000000e+00
    X0002226  C0000195   1.000000000000e+00
    X0002226  OBJ        1.000000000000e+00
    X0002227  C0000002   1.000000000000e+00
    X0002227  C0000159   1.000000000000e+00
    X0002227  OBJ        1.000000000000e+00
    X0002228  C0000002   1.000000000000e+00
    X0002228  C0000171   1.000000000000e+00
    X0002228  OBJ        1.000000000000e+00
    X0002229  C0000002   1.000000000000e+00
    X0002229  C0000163   1.000000000000e+00
    X0002229  OBJ        1.000000000000e+00
    X0002230  C0000002   1.000000000000e+00
    X0002230  C0000136   1.000000000000e+00
    X0002230  OBJ        1.000000000000e+00
    X0002231  C0000002   1.000000000000e+00
    X0002231  C0000137   1.000000000000e+00
    X0002231  OBJ        1.000000000000e+00
    X0002232  C0000002   1.000000000000e+00
    X0002232  C0000134   1.000000000000e+00
    X0002232  OBJ        1.000000000000e+00
    X0002233  C0000001   1.000000000000e+00
    X0002233  C0000002   1.000000000000e+00
    X0002233  OBJ        1.000000000000e+00
    X0002234  C0000002   1.000000000000e+00
    X0002234  C0000013   1.000000000000e+00
    X0002234  OBJ        1.000000000000e+00
    X0002235  C0000002   1.000000000000e+00
    X0002235  C0000014   1.000000000000e+00
    X0002235  OBJ        1.000000000000e+00
    X0002236  C0000002   1.000000000000e+00
    X0002236  C0000016   1.000000000000e+00
    X0002236  OBJ        1.000000000000e+00
    X0002237  C0000002   1.000000000000e+00
    X0002237  C0000006   1.000000000000e+00
    X0002237  OBJ        1.000000000000e+00
    X0002238  C0000002   1.000000000000e+00
    X0002238  C0000109   1.000000000000e+00
    X0002238  OBJ        1.000000000000e+00
    X0002239  C0000002   1.000000000000e+00
    X0002239  C0000105   1.000000000000e+00
    X0002239  OBJ        1.000000000000e+00
    X0002240  C0000002   1.000000000000e+00
    X0002240  C0000103   1.000000000000e+00
    X0002240  OBJ        1.000000000000e+00
    X0002241  C0000002   1.000000000000e+00
    X0002241  C0000099   1.000000000000e+00
    X0002241  OBJ        1.000000000000e+00
    X0002242  C0000002   1.000000000000e+00
    X0002242  C0000121   1.000000000000e+00
    X0002242  OBJ        1.000000000000e+00
    X0002243  C0000002   1.000000000000e+00
    X0002243  C0000117   1.000000000000e+00
    X0002243  OBJ        1.000000000000e+00
    X0002244  C0000002   1.000000000000e+00
    X0002244  C0000097   1.000000000000e+00
    X0002244  OBJ        1.000000000000e+00
    X0002245  C0000002   1.000000000000e+00
    X0002245  C0000094   1.000000000000e+00
    X0002245  OBJ        1.000000000000e+00
    X0002246  C0000003   1.000000000000e+00
    X0002246  C0000054   1.000000000000e+00
    X0002246  OBJ        1.000000000000e+00
    X0002247  C0000003   1.000000000000e+00
    X0002247  C0000295   1.000000000000e+00
    X0002247  OBJ        1.000000000000e+00
    X0002248  C0000003   1.000000000000e+00
    X0002248  C0000046   1.000000000000e+00
    X0002248  OBJ        1.000000000000e+00
    X0002249  C0000003   1.000000000000e+00
    X0002249  C0000026   1.000000000000e+00
    X0002249  OBJ        1.000000000000e+00
    X0002250  C0000003   1.000000000000e+00
    X0002250  C0000175   1.000000000000e+00
    X0002250  OBJ        1.000000000000e+00
    X0002251  C0000003   1.000000000000e+00
    X0002251  C0000182   1.000000000000e+00
    X0002251  OBJ        1.000000000000e+00
    X0002252  C0000003   1.000000000000e+00
    X0002252  C0000291   1.000000000000e+00
    X0002252  OBJ        1.000000000000e+00
    X0002253  C0000003   1.000000000000e+00
    X0002253  C0000042   1.000000000000e+00
    X0002253  OBJ        1.000000000000e+00
    X0002254  C0000003   1.000000000000e+00
    X0002254  C0000053   1.000000000000e+00
    X0002254  OBJ        1.000000000000e+00
    X0002255  C0000003   1.000000000000e+00
    X0002255  C0000146   1.000000000000e+00
    X0002255  OBJ        1.000000000000e+00
    X0002256  C0000003   1.000000000000e+00
    X0002256  C0000179   1.000000000000e+00
    X0002256  OBJ        1.000000000000e+00
    X0002257  C0000003   1.000000000000e+00
    X0002257  C0000128   1.000000000000e+00
    X0002257  OBJ        1.000000000000e+00
    X0002258  C0000003   1.000000000000e+00
    X0002258  C0000135   1.000000000000e+00
    X0002258  OBJ        1.000000000000e+00
    X0002259  C0000003   1.000000000000e+00
    X0002259  C0000111   1.000000000000e+00
    X0002259  OBJ        1.000000000000e+00
    X0002260  C0000003   1.000000000000e+00
    X0002260  C0000012   1.000000000000e+00
    X0002260  OBJ        1.000000000000e+00
    X0002261  C0000003   1.000000000000e+00
    X0002261  C0000155   1.000000000000e+00
    X0002261  OBJ        1.000000000000e+00
    X0002262  C0000003   1.000000000000e+00
    X0002262  C0000167   1.000000000000e+00
    X0002262  OBJ        1.000000000000e+00
    X0002263  C0000003   1.000000000000e+00
    X0002263  C0000184   1.000000000000e+00
    X0002263  OBJ        1.000000000000e+00
    X0002264  C0000003   1.000000000000e+00
    X0002264  C0000188   1.000000000000e+00
    X0002264  OBJ        1.000000000000e+00
    X0002265  C0000003   1.000000000000e+00
    X0002265  C0000192   1.000000000000e+00
    X0002265  OBJ        1.000000000000e+00
    X0002266  C0000003   1.000000000000e+00
    X0002266  C0000304   1.000000000000e+00
    X0002266  OBJ        1.000000000000e+00
    X0002267  C0000003   1.000000000000e+00
    X0002267  C0000287   1.000000000000e+00
    X0002267  OBJ        1.000000000000e+00
    X0002268  C0000003   1.000000000000e+00
    X0002268  C0000286   1.000000000000e+00
    X0002268  OBJ        1.000000000000e+00
    X0002269  C0000003   1.000000000000e+00
    X0002269  C0000298   1.000000000000e+00
    X0002269  OBJ        1.000000000000e+00
    X0002270  C0000003   1.000000000000e+00
    X0002270  C0000288   1.000000000000e+00
    X0002270  OBJ        1.000000000000e+00
    X0002271  C0000003   1.000000000000e+00
    X0002271  C0000032   1.000000000000e+00
    X0002271  OBJ        1.000000000000e+00
    X0002272  C0000003   1.000000000000e+00
    X0002272  C0000036   1.000000000000e+00
    X0002272  OBJ        1.000000000000e+00
    X0002273  C0000003   1.000000000000e+00
    X0002273  C0000040   1.000000000000e+00
    X0002273  OBJ        1.000000000000e+00
    X0002274  C0000003   1.000000000000e+00
    X0002274  C0000030   1.000000000000e+00
    X0002274  OBJ        1.000000000000e+00
    X0002275  C0000003   1.000000000000e+00
    X0002275  C0000050   1.000000000000e+00
    X0002275  OBJ        1.000000000000e+00
    X0002276  C0000003   1.000000000000e+00
    X0002276  C0000151   1.000000000000e+00
    X0002276  OBJ        1.000000000000e+00
    X0002277  C0000003   1.000000000000e+00
    X0002277  C0000195   1.000000000000e+00
    X0002277  OBJ        1.000000000000e+00
    X0002278  C0000003   1.000000000000e+00
    X0002278  C0000159   1.000000000000e+00
    X0002278  OBJ        1.000000000000e+00
    X0002279  C0000003   1.000000000000e+00
    X0002279  C0000171   1.000000000000e+00
    X0002279  OBJ        1.000000000000e+00
    X0002280  C0000003   1.000000000000e+00
    X0002280  C0000163   1.000000000000e+00
    X0002280  OBJ        1.000000000000e+00
    X0002281  C0000003   1.000000000000e+00
    X0002281  C0000136   1.000000000000e+00
    X0002281  OBJ        1.000000000000e+00
    X0002282  C0000003   1.000000000000e+00
    X0002282  C0000137   1.000000000000e+00
    X0002282  OBJ        1.000000000000e+00
    X0002283  C0000003   1.000000000000e+00
    X0002283  C0000134   1.000000000000e+00
    X0002283  OBJ        1.000000000000e+00
    X0002284  C0000003   1.000000000000e+00
    X0002284  C0000013   1.000000000000e+00
    X0002284  OBJ        1.000000000000e+00
    X0002285  C0000003   1.000000000000e+00
    X0002285  C0000014   1.000000000000e+00
    X0002285  OBJ        1.000000000000e+00
    X0002286  C0000003   1.000000000000e+00
    X0002286  C0000016   1.000000000000e+00
    X0002286  OBJ        1.000000000000e+00
    X0002287  C0000003   1.000000000000e+00
    X0002287  C0000006   1.000000000000e+00
    X0002287  OBJ        1.000000000000e+00
    X0002288  C0000003   1.000000000000e+00
    X0002288  C0000109   1.000000000000e+00
    X0002288  OBJ        1.000000000000e+00
    X0002289  C0000003   1.000000000000e+00
    X0002289  C0000105   1.000000000000e+00
    X0002289  OBJ        1.000000000000e+00
    X0002290  C0000003   1.000000000000e+00
    X0002290  C0000103   1.000000000000e+00
    X0002290  OBJ        1.000000000000e+00
    X0002291  C0000003   1.000000000000e+00
    X0002291  C0000099   1.000000000000e+00
    X0002291  OBJ        1.000000000000e+00
    X0002292  C0000003   1.000000000000e+00
    X0002292  C0000117   1.000000000000e+00
    X0002292  OBJ        1.000000000000e+00
    X0002293  C0000003   1.000000000000e+00
    X0002293  C0000097   1.000000000000e+00
    X0002293  OBJ        1.000000000000e+00
    X0002294  C0000003   1.000000000000e+00
    X0002294  C0000094   1.000000000000e+00
    X0002294  OBJ        1.000000000000e+00
    X0002295  C0000004   1.000000000000e+00
    X0002295  C0000054   1.000000000000e+00
    X0002295  OBJ        1.000000000000e+00
    X0002296  C0000004   1.000000000000e+00
    X0002296  C0000295   1.000000000000e+00
    X0002296  OBJ        1.000000000000e+00
    X0002297  C0000004   1.000000000000e+00
    X0002297  C0000046   1.000000000000e+00
    X0002297  OBJ        1.000000000000e+00
    X0002298  C0000004   1.000000000000e+00
    X0002298  C0000026   1.000000000000e+00
    X0002298  OBJ        1.000000000000e+00
    X0002299  C0000004   1.000000000000e+00
    X0002299  C0000175   1.000000000000e+00
    X0002299  OBJ        1.000000000000e+00
    X0002300  C0000004   1.000000000000e+00
    X0002300  C0000182   1.000000000000e+00
    X0002300  OBJ        1.000000000000e+00
    X0002301  C0000004   1.000000000000e+00
    X0002301  C0000291   1.000000000000e+00
    X0002301  OBJ        1.000000000000e+00
    X0002302  C0000004   1.000000000000e+00
    X0002302  C0000042   1.000000000000e+00
    X0002302  OBJ        1.000000000000e+00
    X0002303  C0000004   1.000000000000e+00
    X0002303  C0000053   1.000000000000e+00
    X0002303  OBJ        1.000000000000e+00
    X0002304  C0000004   1.000000000000e+00
    X0002304  C0000179   1.000000000000e+00
    X0002304  OBJ        1.000000000000e+00
    X0002305  C0000004   1.000000000000e+00
    X0002305  C0000128   1.000000000000e+00
    X0002305  OBJ        1.000000000000e+00
    X0002306  C0000004   1.000000000000e+00
    X0002306  C0000135   1.000000000000e+00
    X0002306  OBJ        1.000000000000e+00
    X0002307  C0000004   1.000000000000e+00
    X0002307  C0000111   1.000000000000e+00
    X0002307  OBJ        1.000000000000e+00
    X0002308  C0000004   1.000000000000e+00
    X0002308  C0000012   1.000000000000e+00
    X0002308  OBJ        1.000000000000e+00
    X0002309  C0000004   1.000000000000e+00
    X0002309  C0000155   1.000000000000e+00
    X0002309  OBJ        1.000000000000e+00
    X0002310  C0000004   1.000000000000e+00
    X0002310  C0000167   1.000000000000e+00
    X0002310  OBJ        1.000000000000e+00
    X0002311  C0000004   1.000000000000e+00
    X0002311  C0000184   1.000000000000e+00
    X0002311  OBJ        1.000000000000e+00
    X0002312  C0000004   1.000000000000e+00
    X0002312  C0000188   1.000000000000e+00
    X0002312  OBJ        1.000000000000e+00
    X0002313  C0000004   1.000000000000e+00
    X0002313  C0000192   1.000000000000e+00
    X0002313  OBJ        1.000000000000e+00
    X0002314  C0000004   1.000000000000e+00
    X0002314  C0000287   1.000000000000e+00
    X0002314  OBJ        1.000000000000e+00
    X0002315  C0000004   1.000000000000e+00
    X0002315  C0000286   1.000000000000e+00
    X0002315  OBJ        1.000000000000e+00
    X0002316  C0000004   1.000000000000e+00
    X0002316  C0000298   1.000000000000e+00
    X0002316  OBJ        1.000000000000e+00
    X0002317  C0000004   1.000000000000e+00
    X0002317  C0000288   1.000000000000e+00
    X0002317  OBJ        1.000000000000e+00
    X0002318  C0000004   1.000000000000e+00
    X0002318  C0000032   1.000000000000e+00
    X0002318  OBJ        1.000000000000e+00
    X0002319  C0000004   1.000000000000e+00
    X0002319  C0000036   1.000000000000e+00
    X0002319  OBJ        1.000000000000e+00
    X0002320  C0000004   1.000000000000e+00
    X0002320  C0000040   1.000000000000e+00
    X0002320  OBJ        1.000000000000e+00
    X0002321  C0000004   1.000000000000e+00
    X0002321  C0000030   1.000000000000e+00
    X0002321  OBJ        1.000000000000e+00
    X0002322  C0000004   1.000000000000e+00
    X0002322  C0000050   1.000000000000e+00
    X0002322  OBJ        1.000000000000e+00
    X0002323  C0000004   1.000000000000e+00
    X0002323  C0000151   1.000000000000e+00
    X0002323  OBJ        1.000000000000e+00
    X0002324  C0000004   1.000000000000e+00
    X0002324  C0000195   1.000000000000e+00
    X0002324  OBJ        1.000000000000e+00
    X0002325  C0000004   1.000000000000e+00
    X0002325  C0000159   1.000000000000e+00
    X0002325  OBJ        1.000000000000e+00
    X0002326  C0000004   1.000000000000e+00
    X0002326  C0000171   1.000000000000e+00
    X0002326  OBJ        1.000000000000e+00
    X0002327  C0000004   1.000000000000e+00
    X0002327  C0000163   1.000000000000e+00
    X0002327  OBJ        1.000000000000e+00
    X0002328  C0000004   1.000000000000e+00
    X0002328  C0000136   1.000000000000e+00
    X0002328  OBJ        1.000000000000e+00
    X0002329  C0000004   1.000000000000e+00
    X0002329  C0000137   1.000000000000e+00
    X0002329  OBJ        1.000000000000e+00
    X0002330  C0000004   1.000000000000e+00
    X0002330  C0000134   1.000000000000e+00
    X0002330  OBJ        1.000000000000e+00
    X0002331  C0000004   1.000000000000e+00
    X0002331  C0000013   1.000000000000e+00
    X0002331  OBJ        1.000000000000e+00
    X0002332  C0000004   1.000000000000e+00
    X0002332  C0000014   1.000000000000e+00
    X0002332  OBJ        1.000000000000e+00
    X0002333  C0000004   1.000000000000e+00
    X0002333  C0000016   1.000000000000e+00
    X0002333  OBJ        1.000000000000e+00
    X0002334  C0000004   1.000000000000e+00
    X0002334  C0000006   1.000000000000e+00
    X0002334  OBJ        1.000000000000e+00
    X0002335  C0000004   1.000000000000e+00
    X0002335  C0000109   1.000000000000e+00
    X0002335  OBJ        1.000000000000e+00
    X0002336  C0000004   1.000000000000e+00
    X0002336  C0000105   1.000000000000e+00
    X0002336  OBJ        1.000000000000e+00
    X0002337  C0000004   1.000000000000e+00
    X0002337  C0000103   1.000000000000e+00
    X0002337  OBJ        1.000000000000e+00
    X0002338  C0000004   1.000000000000e+00
    X0002338  C0000099   1.000000000000e+00
    X0002338  OBJ        1.000000000000e+00
    X0002339  C0000004   1.000000000000e+00
    X0002339  C0000097   1.000000000000e+00
    X0002339  OBJ        1.000000000000e+00
    X0002340  C0000004   1.000000000000e+00
    X0002340  C0000094   1.000000000000e+00
    X0002340  OBJ        1.000000000000e+00
    X0002341  C0000005   1.000000000000e+00
    X0002341  C0000054   1.000000000000e+00
    X0002341  OBJ        1.000000000000e+00
    X0002342  C0000005   1.000000000000e+00
    X0002342  C0000295   1.000000000000e+00
    X0002342  OBJ        1.000000000000e+00
    X0002343  C0000005   1.000000000000e+00
    X0002343  C0000046   1.000000000000e+00
    X0002343  OBJ        1.000000000000e+00
    X0002344  C0000005   1.000000000000e+00
    X0002344  C0000175   1.000000000000e+00
    X0002344  OBJ        1.000000000000e+00
    X0002345  C0000005   1.000000000000e+00
    X0002345  C0000182   1.000000000000e+00
    X0002345  OBJ        1.000000000000e+00
    X0002346  C0000005   1.000000000000e+00
    X0002346  C0000291   1.000000000000e+00
    X0002346  OBJ        1.000000000000e+00
    X0002347  C0000005   1.000000000000e+00
    X0002347  C0000042   1.000000000000e+00
    X0002347  OBJ        1.000000000000e+00
    X0002348  C0000005   1.000000000000e+00
    X0002348  C0000053   1.000000000000e+00
    X0002348  OBJ        1.000000000000e+00
    X0002349  C0000005   1.000000000000e+00
    X0002349  C0000179   1.000000000000e+00
    X0002349  OBJ        1.000000000000e+00
    X0002350  C0000005   1.000000000000e+00
    X0002350  C0000128   1.000000000000e+00
    X0002350  OBJ        1.000000000000e+00
    X0002351  C0000005   1.000000000000e+00
    X0002351  C0000135   1.000000000000e+00
    X0002351  OBJ        1.000000000000e+00
    X0002352  C0000005   1.000000000000e+00
    X0002352  C0000111   1.000000000000e+00
    X0002352  OBJ        1.000000000000e+00
    X0002353  C0000005   1.000000000000e+00
    X0002353  C0000012   1.000000000000e+00
    X0002353  OBJ        1.000000000000e+00
    X0002354  C0000005   1.000000000000e+00
    X0002354  C0000155   1.000000000000e+00
    X0002354  OBJ        1.000000000000e+00
    X0002355  C0000005   1.000000000000e+00
    X0002355  C0000167   1.000000000000e+00
    X0002355  OBJ        1.000000000000e+00
    X0002356  C0000005   1.000000000000e+00
    X0002356  C0000184   1.000000000000e+00
    X0002356  OBJ        1.000000000000e+00
    X0002357  C0000005   1.000000000000e+00
    X0002357  C0000188   1.000000000000e+00
    X0002357  OBJ        1.000000000000e+00
    X0002358  C0000005   1.000000000000e+00
    X0002358  C0000192   1.000000000000e+00
    X0002358  OBJ        1.000000000000e+00
    X0002359  C0000005   1.000000000000e+00
    X0002359  C0000287   1.000000000000e+00
    X0002359  OBJ        1.000000000000e+00
    X0002360  C0000005   1.000000000000e+00
    X0002360  C0000286   1.000000000000e+00
    X0002360  OBJ        1.000000000000e+00
    X0002361  C0000005   1.000000000000e+00
    X0002361  C0000298   1.000000000000e+00
    X0002361  OBJ        1.000000000000e+00
    X0002362  C0000005   1.000000000000e+00
    X0002362  C0000288   1.000000000000e+00
    X0002362  OBJ        1.000000000000e+00
    X0002363  C0000005   1.000000000000e+00
    X0002363  C0000032   1.000000000000e+00
    X0002363  OBJ        1.000000000000e+00
    X0002364  C0000005   1.000000000000e+00
    X0002364  C0000036   1.000000000000e+00
    X0002364  OBJ        1.000000000000e+00
    X0002365  C0000005   1.000000000000e+00
    X0002365  C0000040   1.000000000000e+00
    X0002365  OBJ        1.000000000000e+00
    X0002366  C0000005   1.000000000000e+00
    X0002366  C0000030   1.000000000000e+00
    X0002366  OBJ        1.000000000000e+00
    X0002367  C0000005   1.000000000000e+00
    X0002367  C0000050   1.000000000000e+00
    X0002367  OBJ        1.000000000000e+00
    X0002368  C0000005   1.000000000000e+00
    X0002368  C0000195   1.000000000000e+00
    X0002368  OBJ        1.000000000000e+00
    X0002369  C0000005   1.000000000000e+00
    X0002369  C0000159   1.000000000000e+00
    X0002369  OBJ        1.000000000000e+00
    X0002370  C0000005   1.000000000000e+00
    X0002370  C0000171   1.000000000000e+00
    X0002370  OBJ        1.000000000000e+00
    X0002371  C0000005   1.000000000000e+00
    X0002371  C0000163   1.000000000000e+00
    X0002371  OBJ        1.000000000000e+00
    X0002372  C0000005   1.000000000000e+00
    X0002372  C0000136   1.000000000000e+00
    X0002372  OBJ        1.000000000000e+00
    X0002373  C0000005   1.000000000000e+00
    X0002373  C0000137   1.000000000000e+00
    X0002373  OBJ        1.000000000000e+00
    X0002374  C0000005   1.000000000000e+00
    X0002374  C0000134   1.000000000000e+00
    X0002374  OBJ        1.000000000000e+00
    X0002375  C0000005   1.000000000000e+00
    X0002375  C0000013   1.000000000000e+00
    X0002375  OBJ        1.000000000000e+00
    X0002376  C0000005   1.000000000000e+00
    X0002376  C0000014   1.000000000000e+00
    X0002376  OBJ        1.000000000000e+00
    X0002377  C0000005   1.000000000000e+00
    X0002377  C0000006   1.000000000000e+00
    X0002377  OBJ        1.000000000000e+00
    X0002378  C0000005   1.000000000000e+00
    X0002378  C0000109   1.000000000000e+00
    X0002378  OBJ        1.000000000000e+00
    X0002379  C0000005   1.000000000000e+00
    X0002379  C0000105   1.000000000000e+00
    X0002379  OBJ        1.000000000000e+00
    X0002380  C0000005   1.000000000000e+00
    X0002380  C0000103   1.000000000000e+00
    X0002380  OBJ        1.000000000000e+00
    X0002381  C0000005   1.000000000000e+00
    X0002381  C0000099   1.000000000000e+00
    X0002381  OBJ        1.000000000000e+00
    X0002382  C0000005   1.000000000000e+00
    X0002382  C0000097   1.000000000000e+00
    X0002382  OBJ        1.000000000000e+00
    X0002383  C0000005   1.000000000000e+00
    X0002383  C0000094   1.000000000000e+00
    X0002383  OBJ        1.000000000000e+00
    X0002384  C0000000   1.000000000000e+00
    X0002384  C0000008   1.000000000000e+00
    X0002384  OBJ        1.000000000000e+00
    X0002385  C0000000   1.000000000000e+00
    X0002385  C0000010   1.000000000000e+00
    X0002385  OBJ        1.000000000000e+00
    X0002386  C0000010   1.000000000000e+00
    X0002386  C0000015   1.000000000000e+00
    X0002386  OBJ        1.000000000000e+00
    X0002387  C0000054   1.000000000000e+00
    X0002387  C0000112   1.000000000000e+00
    X0002387  OBJ        1.000000000000e+00
    X0002388  C0000112   1.000000000000e+00
    X0002388  C0000295   1.000000000000e+00
    X0002388  OBJ        1.000000000000e+00
    X0002389  C0000046   1.000000000000e+00
    X0002389  C0000112   1.000000000000e+00
    X0002389  OBJ        1.000000000000e+00
    X0002390  C0000112   1.000000000000e+00
    X0002390  C0000175   1.000000000000e+00
    X0002390  OBJ        1.000000000000e+00
    X0002391  C0000112   1.000000000000e+00
    X0002391  C0000182   1.000000000000e+00
    X0002391  OBJ        1.000000000000e+00
    X0002392  C0000112   1.000000000000e+00
    X0002392  C0000291   1.000000000000e+00
    X0002392  OBJ        1.000000000000e+00
    X0002393  C0000042   1.000000000000e+00
    X0002393  C0000112   1.000000000000e+00
    X0002393  OBJ        1.000000000000e+00
    X0002394  C0000053   1.000000000000e+00
    X0002394  C0000112   1.000000000000e+00
    X0002394  OBJ        1.000000000000e+00
    X0002395  C0000112   1.000000000000e+00
    X0002395  C0000179   1.000000000000e+00
    X0002395  OBJ        1.000000000000e+00
    X0002396  C0000112   1.000000000000e+00
    X0002396  C0000135   1.000000000000e+00
    X0002396  OBJ        1.000000000000e+00
    X0002397  C0000012   1.000000000000e+00
    X0002397  C0000112   1.000000000000e+00
    X0002397  OBJ        1.000000000000e+00
    X0002398  C0000112   1.000000000000e+00
    X0002398  C0000167   1.000000000000e+00
    X0002398  OBJ        1.000000000000e+00
    X0002399  C0000112   1.000000000000e+00
    X0002399  C0000184   1.000000000000e+00
    X0002399  OBJ        1.000000000000e+00
    X0002400  C0000112   1.000000000000e+00
    X0002400  C0000188   1.000000000000e+00
    X0002400  OBJ        1.000000000000e+00
    X0002401  C0000112   1.000000000000e+00
    X0002401  C0000192   1.000000000000e+00
    X0002401  OBJ        1.000000000000e+00
    X0002402  C0000112   1.000000000000e+00
    X0002402  C0000287   1.000000000000e+00
    X0002402  OBJ        1.000000000000e+00
    X0002403  C0000112   1.000000000000e+00
    X0002403  C0000286   1.000000000000e+00
    X0002403  OBJ        1.000000000000e+00
    X0002404  C0000112   1.000000000000e+00
    X0002404  C0000288   1.000000000000e+00
    X0002404  OBJ        1.000000000000e+00
    X0002405  C0000036   1.000000000000e+00
    X0002405  C0000112   1.000000000000e+00
    X0002405  OBJ        1.000000000000e+00
    X0002406  C0000040   1.000000000000e+00
    X0002406  C0000112   1.000000000000e+00
    X0002406  OBJ        1.000000000000e+00
    X0002407  C0000050   1.000000000000e+00
    X0002407  C0000112   1.000000000000e+00
    X0002407  OBJ        1.000000000000e+00
    X0002408  C0000112   1.000000000000e+00
    X0002408  C0000195   1.000000000000e+00
    X0002408  OBJ        1.000000000000e+00
    X0002409  C0000112   1.000000000000e+00
    X0002409  C0000171   1.000000000000e+00
    X0002409  OBJ        1.000000000000e+00
    X0002410  C0000112   1.000000000000e+00
    X0002410  C0000163   1.000000000000e+00
    X0002410  OBJ        1.000000000000e+00
    X0002411  C0000112   1.000000000000e+00
    X0002411  C0000136   1.000000000000e+00
    X0002411  OBJ        1.000000000000e+00
    X0002412  C0000112   1.000000000000e+00
    X0002412  C0000137   1.000000000000e+00
    X0002412  OBJ        1.000000000000e+00
    X0002413  C0000112   1.000000000000e+00
    X0002413  C0000134   1.000000000000e+00
    X0002413  OBJ        1.000000000000e+00
    X0002414  C0000013   1.000000000000e+00
    X0002414  C0000112   1.000000000000e+00
    X0002414  OBJ        1.000000000000e+00
    X0002415  C0000014   1.000000000000e+00
    X0002415  C0000112   1.000000000000e+00
    X0002415  OBJ        1.000000000000e+00
    X0002416  C0000006   1.000000000000e+00
    X0002416  C0000112   1.000000000000e+00
    X0002416  OBJ        1.000000000000e+00
    X0002417  C0000109   1.000000000000e+00
    X0002417  C0000112   1.000000000000e+00
    X0002417  OBJ        1.000000000000e+00
    X0002418  C0000105   1.000000000000e+00
    X0002418  C0000112   1.000000000000e+00
    X0002418  OBJ        1.000000000000e+00
    X0002419  C0000103   1.000000000000e+00
    X0002419  C0000112   1.000000000000e+00
    X0002419  OBJ        1.000000000000e+00
    X0002420  C0000099   1.000000000000e+00
    X0002420  C0000112   1.000000000000e+00
    X0002420  OBJ        1.000000000000e+00
    X0002421  C0000097   1.000000000000e+00
    X0002421  C0000112   1.000000000000e+00
    X0002421  OBJ        1.000000000000e+00
    X0002422  C0000094   1.000000000000e+00
    X0002422  C0000112   1.000000000000e+00
    X0002422  OBJ        1.000000000000e+00
    X0002423  C0000054   1.000000000000e+00
    X0002423  C0000088   1.000000000000e+00
    X0002423  OBJ        1.000000000000e+00
    X0002424  C0000088   1.000000000000e+00
    X0002424  C0000295   1.000000000000e+00
    X0002424  OBJ        1.000000000000e+00
    X0002425  C0000046   1.000000000000e+00
    X0002425  C0000088   1.000000000000e+00
    X0002425  OBJ        1.000000000000e+00
    X0002426  C0000026   1.000000000000e+00
    X0002426  C0000088   1.000000000000e+00
    X0002426  OBJ        1.000000000000e+00
    X0002427  C0000088   1.000000000000e+00
    X0002427  C0000175   1.000000000000e+00
    X0002427  OBJ        1.000000000000e+00
    X0002428  C0000088   1.000000000000e+00
    X0002428  C0000182   1.000000000000e+00
    X0002428  OBJ        1.000000000000e+00
    X0002429  C0000088   1.000000000000e+00
    X0002429  C0000291   1.000000000000e+00
    X0002429  OBJ        1.000000000000e+00
    X0002430  C0000042   1.000000000000e+00
    X0002430  C0000088   1.000000000000e+00
    X0002430  OBJ        1.000000000000e+00
    X0002431  C0000053   1.000000000000e+00
    X0002431  C0000088   1.000000000000e+00
    X0002431  OBJ        1.000000000000e+00
    X0002432  C0000088   1.000000000000e+00
    X0002432  C0000146   1.000000000000e+00
    X0002432  OBJ        1.000000000000e+00
    X0002433  C0000088   1.000000000000e+00
    X0002433  C0000179   1.000000000000e+00
    X0002433  OBJ        1.000000000000e+00
    X0002434  C0000088   1.000000000000e+00
    X0002434  C0000128   1.000000000000e+00
    X0002434  OBJ        1.000000000000e+00
    X0002435  C0000088   1.000000000000e+00
    X0002435  C0000135   1.000000000000e+00
    X0002435  OBJ        1.000000000000e+00
    X0002436  C0000088   1.000000000000e+00
    X0002436  C0000111   1.000000000000e+00
    X0002436  OBJ        1.000000000000e+00
    X0002437  C0000012   1.000000000000e+00
    X0002437  C0000088   1.000000000000e+00
    X0002437  OBJ        1.000000000000e+00
    X0002438  C0000088   1.000000000000e+00
    X0002438  C0000155   1.000000000000e+00
    X0002438  OBJ        1.000000000000e+00
    X0002439  C0000088   1.000000000000e+00
    X0002439  C0000167   1.000000000000e+00
    X0002439  OBJ        1.000000000000e+00
    X0002440  C0000088   1.000000000000e+00
    X0002440  C0000184   1.000000000000e+00
    X0002440  OBJ        1.000000000000e+00
    X0002441  C0000088   1.000000000000e+00
    X0002441  C0000188   1.000000000000e+00
    X0002441  OBJ        1.000000000000e+00
    X0002442  C0000088   1.000000000000e+00
    X0002442  C0000192   1.000000000000e+00
    X0002442  OBJ        1.000000000000e+00
    X0002443  C0000088   1.000000000000e+00
    X0002443  C0000304   1.000000000000e+00
    X0002443  OBJ        1.000000000000e+00
    X0002444  C0000088   1.000000000000e+00
    X0002444  C0000287   1.000000000000e+00
    X0002444  OBJ        1.000000000000e+00
    X0002445  C0000088   1.000000000000e+00
    X0002445  C0000286   1.000000000000e+00
    X0002445  OBJ        1.000000000000e+00
    X0002446  C0000088   1.000000000000e+00
    X0002446  C0000298   1.000000000000e+00
    X0002446  OBJ        1.000000000000e+00
    X0002447  C0000088   1.000000000000e+00
    X0002447  C0000288   1.000000000000e+00
    X0002447  OBJ        1.000000000000e+00
    X0002448  C0000032   1.000000000000e+00
    X0002448  C0000088   1.000000000000e+00
    X0002448  OBJ        1.000000000000e+00
    X0002449  C0000036   1.000000000000e+00
    X0002449  C0000088   1.000000000000e+00
    X0002449  OBJ        1.000000000000e+00
    X0002450  C0000040   1.000000000000e+00
    X0002450  C0000088   1.000000000000e+00
    X0002450  OBJ        1.000000000000e+00
    X0002451  C0000022   1.000000000000e+00
    X0002451  C0000088   1.000000000000e+00
    X0002451  OBJ        1.000000000000e+00
    X0002452  C0000030   1.000000000000e+00
    X0002452  C0000088   1.000000000000e+00
    X0002452  OBJ        1.000000000000e+00
    X0002453  C0000050   1.000000000000e+00
    X0002453  C0000088   1.000000000000e+00
    X0002453  OBJ        1.000000000000e+00
    X0002454  C0000088   1.000000000000e+00
    X0002454  C0000143   1.000000000000e+00
    X0002454  OBJ        1.000000000000e+00
    X0002455  C0000088   1.000000000000e+00
    X0002455  C0000151   1.000000000000e+00
    X0002455  OBJ        1.000000000000e+00
    X0002456  C0000088   1.000000000000e+00
    X0002456  C0000195   1.000000000000e+00
    X0002456  OBJ        1.000000000000e+00
    X0002457  C0000088   1.000000000000e+00
    X0002457  C0000159   1.000000000000e+00
    X0002457  OBJ        1.000000000000e+00
    X0002458  C0000088   1.000000000000e+00
    X0002458  C0000171   1.000000000000e+00
    X0002458  OBJ        1.000000000000e+00
    X0002459  C0000088   1.000000000000e+00
    X0002459  C0000163   1.000000000000e+00
    X0002459  OBJ        1.000000000000e+00
    X0002460  C0000088   1.000000000000e+00
    X0002460  C0000136   1.000000000000e+00
    X0002460  OBJ        1.000000000000e+00
    X0002461  C0000088   1.000000000000e+00
    X0002461  C0000137   1.000000000000e+00
    X0002461  OBJ        1.000000000000e+00
    X0002462  C0000088   1.000000000000e+00
    X0002462  C0000134   1.000000000000e+00
    X0002462  OBJ        1.000000000000e+00
    X0002463  C0000001   1.000000000000e+00
    X0002463  C0000088   1.000000000000e+00
    X0002463  OBJ        1.000000000000e+00
    X0002464  C0000013   1.000000000000e+00
    X0002464  C0000088   1.000000000000e+00
    X0002464  OBJ        1.000000000000e+00
    X0002465  C0000014   1.000000000000e+00
    X0002465  C0000088   1.000000000000e+00
    X0002465  OBJ        1.000000000000e+00
    X0002466  C0000016   1.000000000000e+00
    X0002466  C0000088   1.000000000000e+00
    X0002466  OBJ        1.000000000000e+00
    X0002467  C0000006   1.000000000000e+00
    X0002467  C0000088   1.000000000000e+00
    X0002467  OBJ        1.000000000000e+00
    X0002468  C0000088   1.000000000000e+00
    X0002468  C0000109   1.000000000000e+00
    X0002468  OBJ        1.000000000000e+00
    X0002469  C0000088   1.000000000000e+00
    X0002469  C0000105   1.000000000000e+00
    X0002469  OBJ        1.000000000000e+00
    X0002470  C0000088   1.000000000000e+00
    X0002470  C0000103   1.000000000000e+00
    X0002470  OBJ        1.000000000000e+00
    X0002471  C0000088   1.000000000000e+00
    X0002471  C0000125   1.000000000000e+00
    X0002471  OBJ        1.000000000000e+00
    X0002472  C0000088   1.000000000000e+00
    X0002472  C0000099   1.000000000000e+00
    X0002472  OBJ        1.000000000000e+00
    X0002473  C0000088   1.000000000000e+00
    X0002473  C0000121   1.000000000000e+00
    X0002473  OBJ        1.000000000000e+00
    X0002474  C0000088   1.000000000000e+00
    X0002474  C0000117   1.000000000000e+00
    X0002474  OBJ        1.000000000000e+00
    X0002475  C0000088   1.000000000000e+00
    X0002475  C0000097   1.000000000000e+00
    X0002475  OBJ        1.000000000000e+00
    X0002476  C0000088   1.000000000000e+00
    X0002476  C0000094   1.000000000000e+00
    X0002476  OBJ        1.000000000000e+00
    X0002477  C0000054   1.000000000000e+00
    X0002477  C0000126   1.000000000000e+00
    X0002477  OBJ        1.000000000000e+00
    X0002478  C0000126   1.000000000000e+00
    X0002478  C0000295   1.000000000000e+00
    X0002478  OBJ        1.000000000000e+00
    X0002479  C0000046   1.000000000000e+00
    X0002479  C0000126   1.000000000000e+00
    X0002479  OBJ        1.000000000000e+00
    X0002480  C0000026   1.000000000000e+00
    X0002480  C0000126   1.000000000000e+00
    X0002480  OBJ        1.000000000000e+00
    X0002481  C0000126   1.000000000000e+00
    X0002481  C0000175   1.000000000000e+00
    X0002481  OBJ        1.000000000000e+00
    X0002482  C0000126   1.000000000000e+00
    X0002482  C0000182   1.000000000000e+00
    X0002482  OBJ        1.000000000000e+00
    X0002483  C0000126   1.000000000000e+00
    X0002483  C0000291   1.000000000000e+00
    X0002483  OBJ        1.000000000000e+00
    X0002484  C0000042   1.000000000000e+00
    X0002484  C0000126   1.000000000000e+00
    X0002484  OBJ        1.000000000000e+00
    X0002485  C0000053   1.000000000000e+00
    X0002485  C0000126   1.000000000000e+00
    X0002485  OBJ        1.000000000000e+00
    X0002486  C0000126   1.000000000000e+00
    X0002486  C0000146   1.000000000000e+00
    X0002486  OBJ        1.000000000000e+00
    X0002487  C0000126   1.000000000000e+00
    X0002487  C0000179   1.000000000000e+00
    X0002487  OBJ        1.000000000000e+00
    X0002488  C0000126   1.000000000000e+00
    X0002488  C0000128   1.000000000000e+00
    X0002488  OBJ        1.000000000000e+00
    X0002489  C0000126   1.000000000000e+00
    X0002489  C0000135   1.000000000000e+00
    X0002489  OBJ        1.000000000000e+00
    X0002490  C0000111   1.000000000000e+00
    X0002490  C0000126   1.000000000000e+00
    X0002490  OBJ        1.000000000000e+00
    X0002491  C0000012   1.000000000000e+00
    X0002491  C0000126   1.000000000000e+00
    X0002491  OBJ        1.000000000000e+00
    X0002492  C0000126   1.000000000000e+00
    X0002492  C0000155   1.000000000000e+00
    X0002492  OBJ        1.000000000000e+00
    X0002493  C0000126   1.000000000000e+00
    X0002493  C0000167   1.000000000000e+00
    X0002493  OBJ        1.000000000000e+00
    X0002494  C0000126   1.000000000000e+00
    X0002494  C0000184   1.000000000000e+00
    X0002494  OBJ        1.000000000000e+00
    X0002495  C0000126   1.000000000000e+00
    X0002495  C0000188   1.000000000000e+00
    X0002495  OBJ        1.000000000000e+00
    X0002496  C0000126   1.000000000000e+00
    X0002496  C0000192   1.000000000000e+00
    X0002496  OBJ        1.000000000000e+00
    X0002497  C0000126   1.000000000000e+00
    X0002497  C0000304   1.000000000000e+00
    X0002497  OBJ        1.000000000000e+00
    X0002498  C0000126   1.000000000000e+00
    X0002498  C0000287   1.000000000000e+00
    X0002498  OBJ        1.000000000000e+00
    X0002499  C0000126   1.000000000000e+00
    X0002499  C0000286   1.000000000000e+00
    X0002499  OBJ        1.000000000000e+00
    X0002500  C0000126   1.000000000000e+00
    X0002500  C0000298   1.000000000000e+00
    X0002500  OBJ        1.000000000000e+00
    X0002501  C0000126   1.000000000000e+00
    X0002501  C0000288   1.000000000000e+00
    X0002501  OBJ        1.000000000000e+00
    X0002502  C0000032   1.000000000000e+00
    X0002502  C0000126   1.000000000000e+00
    X0002502  OBJ        1.000000000000e+00
    X0002503  C0000036   1.000000000000e+00
    X0002503  C0000126   1.000000000000e+00
    X0002503  OBJ        1.000000000000e+00
    X0002504  C0000040   1.000000000000e+00
    X0002504  C0000126   1.000000000000e+00
    X0002504  OBJ        1.000000000000e+00
    X0002505  C0000030   1.000000000000e+00
    X0002505  C0000126   1.000000000000e+00
    X0002505  OBJ        1.000000000000e+00
    X0002506  C0000050   1.000000000000e+00
    X0002506  C0000126   1.000000000000e+00
    X0002506  OBJ        1.000000000000e+00
    X0002507  C0000126   1.000000000000e+00
    X0002507  C0000151   1.000000000000e+00
    X0002507  OBJ        1.000000000000e+00
    X0002508  C0000126   1.000000000000e+00
    X0002508  C0000195   1.000000000000e+00
    X0002508  OBJ        1.000000000000e+00
    X0002509  C0000126   1.000000000000e+00
    X0002509  C0000159   1.000000000000e+00
    X0002509  OBJ        1.000000000000e+00
    X0002510  C0000126   1.000000000000e+00
    X0002510  C0000171   1.000000000000e+00
    X0002510  OBJ        1.000000000000e+00
    X0002511  C0000126   1.000000000000e+00
    X0002511  C0000163   1.000000000000e+00
    X0002511  OBJ        1.000000000000e+00
    X0002512  C0000126   1.000000000000e+00
    X0002512  C0000136   1.000000000000e+00
    X0002512  OBJ        1.000000000000e+00
    X0002513  C0000126   1.000000000000e+00
    X0002513  C0000137   1.000000000000e+00
    X0002513  OBJ        1.000000000000e+00
    X0002514  C0000126   1.000000000000e+00
    X0002514  C0000134   1.000000000000e+00
    X0002514  OBJ        1.000000000000e+00
    X0002515  C0000013   1.000000000000e+00
    X0002515  C0000126   1.000000000000e+00
    X0002515  OBJ        1.000000000000e+00
    X0002516  C0000014   1.000000000000e+00
    X0002516  C0000126   1.000000000000e+00
    X0002516  OBJ        1.000000000000e+00
    X0002517  C0000016   1.000000000000e+00
    X0002517  C0000126   1.000000000000e+00
    X0002517  OBJ        1.000000000000e+00
    X0002518  C0000006   1.000000000000e+00
    X0002518  C0000126   1.000000000000e+00
    X0002518  OBJ        1.000000000000e+00
    X0002519  C0000109   1.000000000000e+00
    X0002519  C0000126   1.000000000000e+00
    X0002519  OBJ        1.000000000000e+00
    X0002520  C0000105   1.000000000000e+00
    X0002520  C0000126   1.000000000000e+00
    X0002520  OBJ        1.000000000000e+00
    X0002521  C0000103   1.000000000000e+00
    X0002521  C0000126   1.000000000000e+00
    X0002521  OBJ        1.000000000000e+00
    X0002522  C0000099   1.000000000000e+00
    X0002522  C0000126   1.000000000000e+00
    X0002522  OBJ        1.000000000000e+00
    X0002523  C0000121   1.000000000000e+00
    X0002523  C0000126   1.000000000000e+00
    X0002523  OBJ        1.000000000000e+00
    X0002524  C0000117   1.000000000000e+00
    X0002524  C0000126   1.000000000000e+00
    X0002524  OBJ        1.000000000000e+00
    X0002525  C0000097   1.000000000000e+00
    X0002525  C0000126   1.000000000000e+00
    X0002525  OBJ        1.000000000000e+00
    X0002526  C0000094   1.000000000000e+00
    X0002526  C0000126   1.000000000000e+00
    X0002526  OBJ        1.000000000000e+00
    X0002527  C0000054   1.000000000000e+00
    X0002527  C0000122   1.000000000000e+00
    X0002527  OBJ        1.000000000000e+00
    X0002528  C0000122   1.000000000000e+00
    X0002528  C0000295   1.000000000000e+00
    X0002528  OBJ        1.000000000000e+00
    X0002529  C0000046   1.000000000000e+00
    X0002529  C0000122   1.000000000000e+00
    X0002529  OBJ        1.000000000000e+00
    X0002530  C0000026   1.000000000000e+00
    X0002530  C0000122   1.000000000000e+00
    X0002530  OBJ        1.000000000000e+00
    X0002531  C0000122   1.000000000000e+00
    X0002531  C0000175   1.000000000000e+00
    X0002531  OBJ        1.000000000000e+00
    X0002532  C0000122   1.000000000000e+00
    X0002532  C0000182   1.000000000000e+00
    X0002532  OBJ        1.000000000000e+00
    X0002533  C0000122   1.000000000000e+00
    X0002533  C0000291   1.000000000000e+00
    X0002533  OBJ        1.000000000000e+00
    X0002534  C0000042   1.000000000000e+00
    X0002534  C0000122   1.000000000000e+00
    X0002534  OBJ        1.000000000000e+00
    X0002535  C0000053   1.000000000000e+00
    X0002535  C0000122   1.000000000000e+00
    X0002535  OBJ        1.000000000000e+00
    X0002536  C0000122   1.000000000000e+00
    X0002536  C0000179   1.000000000000e+00
    X0002536  OBJ        1.000000000000e+00
    X0002537  C0000122   1.000000000000e+00
    X0002537  C0000128   1.000000000000e+00
    X0002537  OBJ        1.000000000000e+00
    X0002538  C0000122   1.000000000000e+00
    X0002538  C0000135   1.000000000000e+00
    X0002538  OBJ        1.000000000000e+00
    X0002539  C0000111   1.000000000000e+00
    X0002539  C0000122   1.000000000000e+00
    X0002539  OBJ        1.000000000000e+00
    X0002540  C0000012   1.000000000000e+00
    X0002540  C0000122   1.000000000000e+00
    X0002540  OBJ        1.000000000000e+00
    X0002541  C0000122   1.000000000000e+00
    X0002541  C0000155   1.000000000000e+00
    X0002541  OBJ        1.000000000000e+00
    X0002542  C0000122   1.000000000000e+00
    X0002542  C0000167   1.000000000000e+00
    X0002542  OBJ        1.000000000000e+00
    X0002543  C0000122   1.000000000000e+00
    X0002543  C0000184   1.000000000000e+00
    X0002543  OBJ        1.000000000000e+00
    X0002544  C0000122   1.000000000000e+00
    X0002544  C0000188   1.000000000000e+00
    X0002544  OBJ        1.000000000000e+00
    X0002545  C0000122   1.000000000000e+00
    X0002545  C0000192   1.000000000000e+00
    X0002545  OBJ        1.000000000000e+00
    X0002546  C0000122   1.000000000000e+00
    X0002546  C0000287   1.000000000000e+00
    X0002546  OBJ        1.000000000000e+00
    X0002547  C0000122   1.000000000000e+00
    X0002547  C0000286   1.000000000000e+00
    X0002547  OBJ        1.000000000000e+00
    X0002548  C0000122   1.000000000000e+00
    X0002548  C0000298   1.000000000000e+00
    X0002548  OBJ        1.000000000000e+00
    X0002549  C0000122   1.000000000000e+00
    X0002549  C0000288   1.000000000000e+00
    X0002549  OBJ        1.000000000000e+00
    X0002550  C0000032   1.000000000000e+00
    X0002550  C0000122   1.000000000000e+00
    X0002550  OBJ        1.000000000000e+00
    X0002551  C0000036   1.000000000000e+00
    X0002551  C0000122   1.000000000000e+00
    X0002551  OBJ        1.000000000000e+00
    X0002552  C0000040   1.000000000000e+00
    X0002552  C0000122   1.000000000000e+00
    X0002552  OBJ        1.000000000000e+00
    X0002553  C0000030   1.000000000000e+00
    X0002553  C0000122   1.000000000000e+00
    X0002553  OBJ        1.000000000000e+00
    X0002554  C0000050   1.000000000000e+00
    X0002554  C0000122   1.000000000000e+00
    X0002554  OBJ        1.000000000000e+00
    X0002555  C0000122   1.000000000000e+00
    X0002555  C0000151   1.000000000000e+00
    X0002555  OBJ        1.000000000000e+00
    X0002556  C0000122   1.000000000000e+00
    X0002556  C0000195   1.000000000000e+00
    X0002556  OBJ        1.000000000000e+00
    X0002557  C0000122   1.000000000000e+00
    X0002557  C0000159   1.000000000000e+00
    X0002557  OBJ        1.000000000000e+00
    X0002558  C0000122   1.000000000000e+00
    X0002558  C0000171   1.000000000000e+00
    X0002558  OBJ        1.000000000000e+00
    X0002559  C0000122   1.000000000000e+00
    X0002559  C0000163   1.000000000000e+00
    X0002559  OBJ        1.000000000000e+00
    X0002560  C0000122   1.000000000000e+00
    X0002560  C0000136   1.000000000000e+00
    X0002560  OBJ        1.000000000000e+00
    X0002561  C0000122   1.000000000000e+00
    X0002561  C0000137   1.000000000000e+00
    X0002561  OBJ        1.000000000000e+00
    X0002562  C0000122   1.000000000000e+00
    X0002562  C0000134   1.000000000000e+00
    X0002562  OBJ        1.000000000000e+00
    X0002563  C0000013   1.000000000000e+00
    X0002563  C0000122   1.000000000000e+00
    X0002563  OBJ        1.000000000000e+00
    X0002564  C0000014   1.000000000000e+00
    X0002564  C0000122   1.000000000000e+00
    X0002564  OBJ        1.000000000000e+00
    X0002565  C0000016   1.000000000000e+00
    X0002565  C0000122   1.000000000000e+00
    X0002565  OBJ        1.000000000000e+00
    X0002566  C0000006   1.000000000000e+00
    X0002566  C0000122   1.000000000000e+00
    X0002566  OBJ        1.000000000000e+00
    X0002567  C0000109   1.000000000000e+00
    X0002567  C0000122   1.000000000000e+00
    X0002567  OBJ        1.000000000000e+00
    X0002568  C0000105   1.000000000000e+00
    X0002568  C0000122   1.000000000000e+00
    X0002568  OBJ        1.000000000000e+00
    X0002569  C0000103   1.000000000000e+00
    X0002569  C0000122   1.000000000000e+00
    X0002569  OBJ        1.000000000000e+00
    X0002570  C0000099   1.000000000000e+00
    X0002570  C0000122   1.000000000000e+00
    X0002570  OBJ        1.000000000000e+00
    X0002571  C0000117   1.000000000000e+00
    X0002571  C0000122   1.000000000000e+00
    X0002571  OBJ        1.000000000000e+00
    X0002572  C0000097   1.000000000000e+00
    X0002572  C0000122   1.000000000000e+00
    X0002572  OBJ        1.000000000000e+00
    X0002573  C0000094   1.000000000000e+00
    X0002573  C0000122   1.000000000000e+00
    X0002573  OBJ        1.000000000000e+00
    X0002574  C0000054   1.000000000000e+00
    X0002574  C0000106   1.000000000000e+00
    X0002574  OBJ        1.000000000000e+00
    X0002575  C0000046   1.000000000000e+00
    X0002575  C0000106   1.000000000000e+00
    X0002575  OBJ        1.000000000000e+00
    X0002576  C0000106   1.000000000000e+00
    X0002576  C0000175   1.000000000000e+00
    X0002576  OBJ        1.000000000000e+00
    X0002577  C0000106   1.000000000000e+00
    X0002577  C0000182   1.000000000000e+00
    X0002577  OBJ        1.000000000000e+00
    X0002578  C0000042   1.000000000000e+00
    X0002578  C0000106   1.000000000000e+00
    X0002578  OBJ        1.000000000000e+00
    X0002579  C0000053   1.000000000000e+00
    X0002579  C0000106   1.000000000000e+00
    X0002579  OBJ        1.000000000000e+00
    X0002580  C0000106   1.000000000000e+00
    X0002580  C0000179   1.000000000000e+00
    X0002580  OBJ        1.000000000000e+00
    X0002581  C0000106   1.000000000000e+00
    X0002581  C0000135   1.000000000000e+00
    X0002581  OBJ        1.000000000000e+00
    X0002582  C0000106   1.000000000000e+00
    X0002582  C0000184   1.000000000000e+00
    X0002582  OBJ        1.000000000000e+00
    X0002583  C0000106   1.000000000000e+00
    X0002583  C0000188   1.000000000000e+00
    X0002583  OBJ        1.000000000000e+00
    X0002584  C0000106   1.000000000000e+00
    X0002584  C0000192   1.000000000000e+00
    X0002584  OBJ        1.000000000000e+00
    X0002585  C0000106   1.000000000000e+00
    X0002585  C0000287   1.000000000000e+00
    X0002585  OBJ        1.000000000000e+00
    X0002586  C0000106   1.000000000000e+00
    X0002586  C0000286   1.000000000000e+00
    X0002586  OBJ        1.000000000000e+00
    X0002587  C0000106   1.000000000000e+00
    X0002587  C0000288   1.000000000000e+00
    X0002587  OBJ        1.000000000000e+00
    X0002588  C0000050   1.000000000000e+00
    X0002588  C0000106   1.000000000000e+00
    X0002588  OBJ        1.000000000000e+00
    X0002589  C0000106   1.000000000000e+00
    X0002589  C0000195   1.000000000000e+00
    X0002589  OBJ        1.000000000000e+00
    X0002590  C0000106   1.000000000000e+00
    X0002590  C0000136   1.000000000000e+00
    X0002590  OBJ        1.000000000000e+00
    X0002591  C0000106   1.000000000000e+00
    X0002591  C0000137   1.000000000000e+00
    X0002591  OBJ        1.000000000000e+00
    X0002592  C0000106   1.000000000000e+00
    X0002592  C0000134   1.000000000000e+00
    X0002592  OBJ        1.000000000000e+00
    X0002593  C0000013   1.000000000000e+00
    X0002593  C0000106   1.000000000000e+00
    X0002593  OBJ        1.000000000000e+00
    X0002594  C0000014   1.000000000000e+00
    X0002594  C0000106   1.000000000000e+00
    X0002594  OBJ        1.000000000000e+00
    X0002595  C0000006   1.000000000000e+00
    X0002595  C0000106   1.000000000000e+00
    X0002595  OBJ        1.000000000000e+00
    X0002596  C0000103   1.000000000000e+00
    X0002596  C0000106   1.000000000000e+00
    X0002596  OBJ        1.000000000000e+00
    X0002597  C0000099   1.000000000000e+00
    X0002597  C0000106   1.000000000000e+00
    X0002597  OBJ        1.000000000000e+00
    X0002598  C0000097   1.000000000000e+00
    X0002598  C0000106   1.000000000000e+00
    X0002598  OBJ        1.000000000000e+00
    X0002599  C0000094   1.000000000000e+00
    X0002599  C0000106   1.000000000000e+00
    X0002599  OBJ        1.000000000000e+00
    X0002600  C0000054   1.000000000000e+00
    X0002600  C0000118   1.000000000000e+00
    X0002600  OBJ        1.000000000000e+00
    X0002601  C0000118   1.000000000000e+00
    X0002601  C0000295   1.000000000000e+00
    X0002601  OBJ        1.000000000000e+00
    X0002602  C0000046   1.000000000000e+00
    X0002602  C0000118   1.000000000000e+00
    X0002602  OBJ        1.000000000000e+00
    X0002603  C0000118   1.000000000000e+00
    X0002603  C0000175   1.000000000000e+00
    X0002603  OBJ        1.000000000000e+00
    X0002604  C0000118   1.000000000000e+00
    X0002604  C0000182   1.000000000000e+00
    X0002604  OBJ        1.000000000000e+00
    X0002605  C0000118   1.000000000000e+00
    X0002605  C0000291   1.000000000000e+00
    X0002605  OBJ        1.000000000000e+00
    X0002606  C0000042   1.000000000000e+00
    X0002606  C0000118   1.000000000000e+00
    X0002606  OBJ        1.000000000000e+00
    X0002607  C0000053   1.000000000000e+00
    X0002607  C0000118   1.000000000000e+00
    X0002607  OBJ        1.000000000000e+00
    X0002608  C0000118   1.000000000000e+00
    X0002608  C0000179   1.000000000000e+00
    X0002608  OBJ        1.000000000000e+00
    X0002609  C0000118   1.000000000000e+00
    X0002609  C0000128   1.000000000000e+00
    X0002609  OBJ        1.000000000000e+00
    X0002610  C0000118   1.000000000000e+00
    X0002610  C0000135   1.000000000000e+00
    X0002610  OBJ        1.000000000000e+00
    X0002611  C0000111   1.000000000000e+00
    X0002611  C0000118   1.000000000000e+00
    X0002611  OBJ        1.000000000000e+00
    X0002612  C0000012   1.000000000000e+00
    X0002612  C0000118   1.000000000000e+00
    X0002612  OBJ        1.000000000000e+00
    X0002613  C0000118   1.000000000000e+00
    X0002613  C0000155   1.000000000000e+00
    X0002613  OBJ        1.000000000000e+00
    X0002614  C0000118   1.000000000000e+00
    X0002614  C0000167   1.000000000000e+00
    X0002614  OBJ        1.000000000000e+00
    X0002615  C0000118   1.000000000000e+00
    X0002615  C0000184   1.000000000000e+00
    X0002615  OBJ        1.000000000000e+00
    X0002616  C0000118   1.000000000000e+00
    X0002616  C0000188   1.000000000000e+00
    X0002616  OBJ        1.000000000000e+00
    X0002617  C0000118   1.000000000000e+00
    X0002617  C0000192   1.000000000000e+00
    X0002617  OBJ        1.000000000000e+00
    X0002618  C0000118   1.000000000000e+00
    X0002618  C0000287   1.000000000000e+00
    X0002618  OBJ        1.000000000000e+00
    X0002619  C0000118   1.000000000000e+00
    X0002619  C0000286   1.000000000000e+00
    X0002619  OBJ        1.000000000000e+00
    X0002620  C0000118   1.000000000000e+00
    X0002620  C0000298   1.000000000000e+00
    X0002620  OBJ        1.000000000000e+00
    X0002621  C0000118   1.000000000000e+00
    X0002621  C0000288   1.000000000000e+00
    X0002621  OBJ        1.000000000000e+00
    X0002622  C0000032   1.000000000000e+00
    X0002622  C0000118   1.000000000000e+00
    X0002622  OBJ        1.000000000000e+00
    X0002623  C0000036   1.000000000000e+00
    X0002623  C0000118   1.000000000000e+00
    X0002623  OBJ        1.000000000000e+00
    X0002624  C0000040   1.000000000000e+00
    X0002624  C0000118   1.000000000000e+00
    X0002624  OBJ        1.000000000000e+00
    X0002625  C0000030   1.000000000000e+00
    X0002625  C0000118   1.000000000000e+00
    X0002625  OBJ        1.000000000000e+00
    X0002626  C0000050   1.000000000000e+00
    X0002626  C0000118   1.000000000000e+00
    X0002626  OBJ        1.000000000000e+00
    X0002627  C0000118   1.000000000000e+00
    X0002627  C0000195   1.000000000000e+00
    X0002627  OBJ        1.000000000000e+00
    X0002628  C0000118   1.000000000000e+00
    X0002628  C0000159   1.000000000000e+00
    X0002628  OBJ        1.000000000000e+00
    X0002629  C0000118   1.000000000000e+00
    X0002629  C0000171   1.000000000000e+00
    X0002629  OBJ        1.000000000000e+00
    X0002630  C0000118   1.000000000000e+00
    X0002630  C0000163   1.000000000000e+00
    X0002630  OBJ        1.000000000000e+00
    X0002631  C0000118   1.000000000000e+00
    X0002631  C0000136   1.000000000000e+00
    X0002631  OBJ        1.000000000000e+00
    X0002632  C0000118   1.000000000000e+00
    X0002632  C0000137   1.000000000000e+00
    X0002632  OBJ        1.000000000000e+00
    X0002633  C0000118   1.000000000000e+00
    X0002633  C0000134   1.000000000000e+00
    X0002633  OBJ        1.000000000000e+00
    X0002634  C0000013   1.000000000000e+00
    X0002634  C0000118   1.000000000000e+00
    X0002634  OBJ        1.000000000000e+00
    X0002635  C0000014   1.000000000000e+00
    X0002635  C0000118   1.000000000000e+00
    X0002635  OBJ        1.000000000000e+00
    X0002636  C0000006   1.000000000000e+00
    X0002636  C0000118   1.000000000000e+00
    X0002636  OBJ        1.000000000000e+00
    X0002637  C0000109   1.000000000000e+00
    X0002637  C0000118   1.000000000000e+00
    X0002637  OBJ        1.000000000000e+00
    X0002638  C0000105   1.000000000000e+00
    X0002638  C0000118   1.000000000000e+00
    X0002638  OBJ        1.000000000000e+00
    X0002639  C0000103   1.000000000000e+00
    X0002639  C0000118   1.000000000000e+00
    X0002639  OBJ        1.000000000000e+00
    X0002640  C0000099   1.000000000000e+00
    X0002640  C0000118   1.000000000000e+00
    X0002640  OBJ        1.000000000000e+00
    X0002641  C0000097   1.000000000000e+00
    X0002641  C0000118   1.000000000000e+00
    X0002641  OBJ        1.000000000000e+00
    X0002642  C0000094   1.000000000000e+00
    X0002642  C0000118   1.000000000000e+00
    X0002642  OBJ        1.000000000000e+00
    X0002643  C0000054   1.000000000000e+00
    X0002643  C0000100   1.000000000000e+00
    X0002643  OBJ        1.000000000000e+00
    X0002644  C0000100   1.000000000000e+00
    X0002644  C0000182   1.000000000000e+00
    X0002644  OBJ        1.000000000000e+00
    X0002645  C0000053   1.000000000000e+00
    X0002645  C0000100   1.000000000000e+00
    X0002645  OBJ        1.000000000000e+00
    X0002646  C0000100   1.000000000000e+00
    X0002646  C0000184   1.000000000000e+00
    X0002646  OBJ        1.000000000000e+00
    X0002647  C0000100   1.000000000000e+00
    X0002647  C0000188   1.000000000000e+00
    X0002647  OBJ        1.000000000000e+00
    X0002648  C0000100   1.000000000000e+00
    X0002648  C0000192   1.000000000000e+00
    X0002648  OBJ        1.000000000000e+00
    X0002649  C0000100   1.000000000000e+00
    X0002649  C0000287   1.000000000000e+00
    X0002649  OBJ        1.000000000000e+00
    X0002650  C0000100   1.000000000000e+00
    X0002650  C0000286   1.000000000000e+00
    X0002650  OBJ        1.000000000000e+00
    X0002651  C0000050   1.000000000000e+00
    X0002651  C0000100   1.000000000000e+00
    X0002651  OBJ        1.000000000000e+00
    X0002652  C0000100   1.000000000000e+00
    X0002652  C0000195   1.000000000000e+00
    X0002652  OBJ        1.000000000000e+00
    X0002653  C0000100   1.000000000000e+00
    X0002653  C0000136   1.000000000000e+00
    X0002653  OBJ        1.000000000000e+00
    X0002654  C0000100   1.000000000000e+00
    X0002654  C0000137   1.000000000000e+00
    X0002654  OBJ        1.000000000000e+00
    X0002655  C0000006   1.000000000000e+00
    X0002655  C0000100   1.000000000000e+00
    X0002655  OBJ        1.000000000000e+00
    X0002656  C0000097   1.000000000000e+00
    X0002656  C0000100   1.000000000000e+00
    X0002656  OBJ        1.000000000000e+00
    X0002657  C0000094   1.000000000000e+00
    X0002657  C0000100   1.000000000000e+00
    X0002657  OBJ        1.000000000000e+00
    X0002658  C0000054   1.000000000000e+00
    X0002658  C0000114   1.000000000000e+00
    X0002658  OBJ        1.000000000000e+00
    X0002659  C0000114   1.000000000000e+00
    X0002659  C0000295   1.000000000000e+00
    X0002659  OBJ        1.000000000000e+00
    X0002660  C0000046   1.000000000000e+00
    X0002660  C0000114   1.000000000000e+00
    X0002660  OBJ        1.000000000000e+00
    X0002661  C0000114   1.000000000000e+00
    X0002661  C0000175   1.000000000000e+00
    X0002661  OBJ        1.000000000000e+00
    X0002662  C0000114   1.000000000000e+00
    X0002662  C0000182   1.000000000000e+00
    X0002662  OBJ        1.000000000000e+00
    X0002663  C0000114   1.000000000000e+00
    X0002663  C0000291   1.000000000000e+00
    X0002663  OBJ        1.000000000000e+00
    X0002664  C0000042   1.000000000000e+00
    X0002664  C0000114   1.000000000000e+00
    X0002664  OBJ        1.000000000000e+00
    X0002665  C0000053   1.000000000000e+00
    X0002665  C0000114   1.000000000000e+00
    X0002665  OBJ        1.000000000000e+00
    X0002666  C0000114   1.000000000000e+00
    X0002666  C0000179   1.000000000000e+00
    X0002666  OBJ        1.000000000000e+00
    X0002667  C0000114   1.000000000000e+00
    X0002667  C0000135   1.000000000000e+00
    X0002667  OBJ        1.000000000000e+00
    X0002668  C0000111   1.000000000000e+00
    X0002668  C0000114   1.000000000000e+00
    X0002668  OBJ        1.000000000000e+00
    X0002669  C0000012   1.000000000000e+00
    X0002669  C0000114   1.000000000000e+00
    X0002669  OBJ        1.000000000000e+00
    X0002670  C0000114   1.000000000000e+00
    X0002670  C0000167   1.000000000000e+00
    X0002670  OBJ        1.000000000000e+00
    X0002671  C0000114   1.000000000000e+00
    X0002671  C0000184   1.000000000000e+00
    X0002671  OBJ        1.000000000000e+00
    X0002672  C0000114   1.000000000000e+00
    X0002672  C0000188   1.000000000000e+00
    X0002672  OBJ        1.000000000000e+00
    X0002673  C0000114   1.000000000000e+00
    X0002673  C0000192   1.000000000000e+00
    X0002673  OBJ        1.000000000000e+00
    X0002674  C0000114   1.000000000000e+00
    X0002674  C0000287   1.000000000000e+00
    X0002674  OBJ        1.000000000000e+00
    X0002675  C0000114   1.000000000000e+00
    X0002675  C0000286   1.000000000000e+00
    X0002675  OBJ        1.000000000000e+00
    X0002676  C0000114   1.000000000000e+00
    X0002676  C0000288   1.000000000000e+00
    X0002676  OBJ        1.000000000000e+00
    X0002677  C0000032   1.000000000000e+00
    X0002677  C0000114   1.000000000000e+00
    X0002677  OBJ        1.000000000000e+00
    X0002678  C0000036   1.000000000000e+00
    X0002678  C0000114   1.000000000000e+00
    X0002678  OBJ        1.000000000000e+00
    X0002679  C0000040   1.000000000000e+00
    X0002679  C0000114   1.000000000000e+00
    X0002679  OBJ        1.000000000000e+00
    X0002680  C0000050   1.000000000000e+00
    X0002680  C0000114   1.000000000000e+00
    X0002680  OBJ        1.000000000000e+00
    X0002681  C0000114   1.000000000000e+00
    X0002681  C0000195   1.000000000000e+00
    X0002681  OBJ        1.000000000000e+00
    X0002682  C0000114   1.000000000000e+00
    X0002682  C0000159   1.000000000000e+00
    X0002682  OBJ        1.000000000000e+00
    X0002683  C0000114   1.000000000000e+00
    X0002683  C0000171   1.000000000000e+00
    X0002683  OBJ        1.000000000000e+00
    X0002684  C0000114   1.000000000000e+00
    X0002684  C0000163   1.000000000000e+00
    X0002684  OBJ        1.000000000000e+00
    X0002685  C0000114   1.000000000000e+00
    X0002685  C0000136   1.000000000000e+00
    X0002685  OBJ        1.000000000000e+00
    X0002686  C0000114   1.000000000000e+00
    X0002686  C0000137   1.000000000000e+00
    X0002686  OBJ        1.000000000000e+00
    X0002687  C0000114   1.000000000000e+00
    X0002687  C0000134   1.000000000000e+00
    X0002687  OBJ        1.000000000000e+00
    X0002688  C0000013   1.000000000000e+00
    X0002688  C0000114   1.000000000000e+00
    X0002688  OBJ        1.000000000000e+00
    X0002689  C0000014   1.000000000000e+00
    X0002689  C0000114   1.000000000000e+00
    X0002689  OBJ        1.000000000000e+00
    X0002690  C0000006   1.000000000000e+00
    X0002690  C0000114   1.000000000000e+00
    X0002690  OBJ        1.000000000000e+00
    X0002691  C0000109   1.000000000000e+00
    X0002691  C0000114   1.000000000000e+00
    X0002691  OBJ        1.000000000000e+00
    X0002692  C0000105   1.000000000000e+00
    X0002692  C0000114   1.000000000000e+00
    X0002692  OBJ        1.000000000000e+00
    X0002693  C0000103   1.000000000000e+00
    X0002693  C0000114   1.000000000000e+00
    X0002693  OBJ        1.000000000000e+00
    X0002694  C0000099   1.000000000000e+00
    X0002694  C0000114   1.000000000000e+00
    X0002694  OBJ        1.000000000000e+00
    X0002695  C0000097   1.000000000000e+00
    X0002695  C0000114   1.000000000000e+00
    X0002695  OBJ        1.000000000000e+00
    X0002696  C0000094   1.000000000000e+00
    X0002696  C0000114   1.000000000000e+00
    X0002696  OBJ        1.000000000000e+00
    X0002697  C0000085   1.000000000000e+00
    X0002697  C0000108   1.000000000000e+00
    X0002697  OBJ        1.000000000000e+00
    X0002698  C0000066   1.000000000000e+00
    X0002698  C0000108   1.000000000000e+00
    X0002698  OBJ        1.000000000000e+00
    X0002699  C0000064   1.000000000000e+00
    X0002699  C0000108   1.000000000000e+00
    X0002699  OBJ        1.000000000000e+00
    X0002700  C0000096   1.000000000000e+00
    X0002700  C0000108   1.000000000000e+00
    X0002700  OBJ        1.000000000000e+00
    X0002701  C0000093   1.000000000000e+00
    X0002701  C0000108   1.000000000000e+00
    X0002701  OBJ        1.000000000000e+00
    X0002702  C0000091   1.000000000000e+00
    X0002702  C0000108   1.000000000000e+00
    X0002702  OBJ        1.000000000000e+00
    X0002703  C0000079   1.000000000000e+00
    X0002703  C0000108   1.000000000000e+00
    X0002703  OBJ        1.000000000000e+00
    X0002704  C0000083   1.000000000000e+00
    X0002704  C0000108   1.000000000000e+00
    X0002704  OBJ        1.000000000000e+00
    X0002705  C0000085   1.000000000000e+00
    X0002705  C0000104   1.000000000000e+00
    X0002705  OBJ        1.000000000000e+00
    X0002706  C0000066   1.000000000000e+00
    X0002706  C0000104   1.000000000000e+00
    X0002706  OBJ        1.000000000000e+00
    X0002707  C0000064   1.000000000000e+00
    X0002707  C0000104   1.000000000000e+00
    X0002707  OBJ        1.000000000000e+00
    X0002708  C0000096   1.000000000000e+00
    X0002708  C0000104   1.000000000000e+00
    X0002708  OBJ        1.000000000000e+00
    X0002709  C0000093   1.000000000000e+00
    X0002709  C0000104   1.000000000000e+00
    X0002709  OBJ        1.000000000000e+00
    X0002710  C0000091   1.000000000000e+00
    X0002710  C0000104   1.000000000000e+00
    X0002710  OBJ        1.000000000000e+00
    X0002711  C0000083   1.000000000000e+00
    X0002711  C0000104   1.000000000000e+00
    X0002711  OBJ        1.000000000000e+00
    X0002712  C0000085   1.000000000000e+00
    X0002712  C0000089   1.000000000000e+00
    X0002712  OBJ        1.000000000000e+00
    X0002713  C0000066   1.000000000000e+00
    X0002713  C0000089   1.000000000000e+00
    X0002713  OBJ        1.000000000000e+00
    X0002714  C0000064   1.000000000000e+00
    X0002714  C0000089   1.000000000000e+00
    X0002714  OBJ        1.000000000000e+00
    X0002715  C0000089   1.000000000000e+00
    X0002715  C0000113   1.000000000000e+00
    X0002715  OBJ        1.000000000000e+00
    X0002716  C0000089   1.000000000000e+00
    X0002716  C0000107   1.000000000000e+00
    X0002716  OBJ        1.000000000000e+00
    X0002717  C0000089   1.000000000000e+00
    X0002717  C0000119   1.000000000000e+00
    X0002717  OBJ        1.000000000000e+00
    X0002718  C0000089   1.000000000000e+00
    X0002718  C0000115   1.000000000000e+00
    X0002718  OBJ        1.000000000000e+00
    X0002719  C0000089   1.000000000000e+00
    X0002719  C0000096   1.000000000000e+00
    X0002719  OBJ        1.000000000000e+00
    X0002720  C0000089   1.000000000000e+00
    X0002720  C0000093   1.000000000000e+00
    X0002720  OBJ        1.000000000000e+00
    X0002721  C0000089   1.000000000000e+00
    X0002721  C0000091   1.000000000000e+00
    X0002721  OBJ        1.000000000000e+00
    X0002722  C0000069   1.000000000000e+00
    X0002722  C0000089   1.000000000000e+00
    X0002722  OBJ        1.000000000000e+00
    X0002723  C0000079   1.000000000000e+00
    X0002723  C0000089   1.000000000000e+00
    X0002723  OBJ        1.000000000000e+00
    X0002724  C0000075   1.000000000000e+00
    X0002724  C0000089   1.000000000000e+00
    X0002724  OBJ        1.000000000000e+00
    X0002725  C0000083   1.000000000000e+00
    X0002725  C0000089   1.000000000000e+00
    X0002725  OBJ        1.000000000000e+00
    X0002726  C0000085   1.000000000000e+00
    X0002726  C0000102   1.000000000000e+00
    X0002726  OBJ        1.000000000000e+00
    X0002727  C0000066   1.000000000000e+00
    X0002727  C0000102   1.000000000000e+00
    X0002727  OBJ        1.000000000000e+00
    X0002728  C0000064   1.000000000000e+00
    X0002728  C0000102   1.000000000000e+00
    X0002728  OBJ        1.000000000000e+00
    X0002729  C0000096   1.000000000000e+00
    X0002729  C0000102   1.000000000000e+00
    X0002729  OBJ        1.000000000000e+00
    X0002730  C0000093   1.000000000000e+00
    X0002730  C0000102   1.000000000000e+00
    X0002730  OBJ        1.000000000000e+00
    X0002731  C0000091   1.000000000000e+00
    X0002731  C0000102   1.000000000000e+00
    X0002731  OBJ        1.000000000000e+00
    X0002732  C0000083   1.000000000000e+00
    X0002732  C0000102   1.000000000000e+00
    X0002732  OBJ        1.000000000000e+00
    X0002733  C0000085   1.000000000000e+00
    X0002733  C0000124   1.000000000000e+00
    X0002733  OBJ        1.000000000000e+00
    X0002734  C0000066   1.000000000000e+00
    X0002734  C0000124   1.000000000000e+00
    X0002734  OBJ        1.000000000000e+00
    X0002735  C0000064   1.000000000000e+00
    X0002735  C0000124   1.000000000000e+00
    X0002735  OBJ        1.000000000000e+00
    X0002736  C0000113   1.000000000000e+00
    X0002736  C0000124   1.000000000000e+00
    X0002736  OBJ        1.000000000000e+00
    X0002737  C0000107   1.000000000000e+00
    X0002737  C0000124   1.000000000000e+00
    X0002737  OBJ        1.000000000000e+00
    X0002738  C0000115   1.000000000000e+00
    X0002738  C0000124   1.000000000000e+00
    X0002738  OBJ        1.000000000000e+00
    X0002739  C0000096   1.000000000000e+00
    X0002739  C0000124   1.000000000000e+00
    X0002739  OBJ        1.000000000000e+00
    X0002740  C0000093   1.000000000000e+00
    X0002740  C0000124   1.000000000000e+00
    X0002740  OBJ        1.000000000000e+00
    X0002741  C0000091   1.000000000000e+00
    X0002741  C0000124   1.000000000000e+00
    X0002741  OBJ        1.000000000000e+00
    X0002742  C0000069   1.000000000000e+00
    X0002742  C0000124   1.000000000000e+00
    X0002742  OBJ        1.000000000000e+00
    X0002743  C0000079   1.000000000000e+00
    X0002743  C0000124   1.000000000000e+00
    X0002743  OBJ        1.000000000000e+00
    X0002744  C0000075   1.000000000000e+00
    X0002744  C0000124   1.000000000000e+00
    X0002744  OBJ        1.000000000000e+00
    X0002745  C0000083   1.000000000000e+00
    X0002745  C0000124   1.000000000000e+00
    X0002745  OBJ        1.000000000000e+00
    X0002746  C0000085   1.000000000000e+00
    X0002746  C0000098   1.000000000000e+00
    X0002746  OBJ        1.000000000000e+00
    X0002747  C0000066   1.000000000000e+00
    X0002747  C0000098   1.000000000000e+00
    X0002747  OBJ        1.000000000000e+00
    X0002748  C0000064   1.000000000000e+00
    X0002748  C0000098   1.000000000000e+00
    X0002748  OBJ        1.000000000000e+00
    X0002749  C0000093   1.000000000000e+00
    X0002749  C0000098   1.000000000000e+00
    X0002749  OBJ        1.000000000000e+00
    X0002750  C0000091   1.000000000000e+00
    X0002750  C0000098   1.000000000000e+00
    X0002750  OBJ        1.000000000000e+00
    X0002751  C0000085   1.000000000000e+00
    X0002751  C0000120   1.000000000000e+00
    X0002751  OBJ        1.000000000000e+00
    X0002752  C0000066   1.000000000000e+00
    X0002752  C0000120   1.000000000000e+00
    X0002752  OBJ        1.000000000000e+00
    X0002753  C0000064   1.000000000000e+00
    X0002753  C0000120   1.000000000000e+00
    X0002753  OBJ        1.000000000000e+00
    X0002754  C0000113   1.000000000000e+00
    X0002754  C0000120   1.000000000000e+00
    X0002754  OBJ        1.000000000000e+00
    X0002755  C0000107   1.000000000000e+00
    X0002755  C0000120   1.000000000000e+00
    X0002755  OBJ        1.000000000000e+00
    X0002756  C0000096   1.000000000000e+00
    X0002756  C0000120   1.000000000000e+00
    X0002756  OBJ        1.000000000000e+00
    X0002757  C0000093   1.000000000000e+00
    X0002757  C0000120   1.000000000000e+00
    X0002757  OBJ        1.000000000000e+00
    X0002758  C0000091   1.000000000000e+00
    X0002758  C0000120   1.000000000000e+00
    X0002758  OBJ        1.000000000000e+00
    X0002759  C0000079   1.000000000000e+00
    X0002759  C0000120   1.000000000000e+00
    X0002759  OBJ        1.000000000000e+00
    X0002760  C0000075   1.000000000000e+00
    X0002760  C0000120   1.000000000000e+00
    X0002760  OBJ        1.000000000000e+00
    X0002761  C0000083   1.000000000000e+00
    X0002761  C0000120   1.000000000000e+00
    X0002761  OBJ        1.000000000000e+00
    X0002762  C0000101   1.000000000000e+00
    X0002762  C0000116   1.000000000000e+00
    X0002762  OBJ        1.000000000000e+00
    X0002763  C0000054   1.000000000000e+00
    X0002763  C0000095   1.000000000000e+00
    X0002763  OBJ        1.000000000000e+00
    X0002764  C0000095   1.000000000000e+00
    X0002764  C0000192   1.000000000000e+00
    X0002764  OBJ        1.000000000000e+00
    X0002765  C0000095   1.000000000000e+00
    X0002765  C0000195   1.000000000000e+00
    X0002765  OBJ        1.000000000000e+00
    X0002766  C0000092   1.000000000000e+00
    X0002766  C0000195   1.000000000000e+00
    X0002766  OBJ        1.000000000000e+00
    X0002767  C0000090   1.000000000000e+00
    X0002767  C0000195   1.000000000000e+00
    X0002767  OBJ        1.000000000000e+00
    X0002768  C0000067   1.000000000000e+00
    X0002768  C0000085   1.000000000000e+00
    X0002768  OBJ        1.000000000000e+00
    X0002769  C0000066   1.000000000000e+00
    X0002769  C0000067   1.000000000000e+00
    X0002769  OBJ        1.000000000000e+00
    X0002770  C0000064   1.000000000000e+00
    X0002770  C0000067   1.000000000000e+00
    X0002770  OBJ        1.000000000000e+00
    X0002771  C0000067   1.000000000000e+00
    X0002771  C0000113   1.000000000000e+00
    X0002771  OBJ        1.000000000000e+00
    X0002772  C0000067   1.000000000000e+00
    X0002772  C0000123   1.000000000000e+00
    X0002772  OBJ        1.000000000000e+00
    X0002773  C0000067   1.000000000000e+00
    X0002773  C0000107   1.000000000000e+00
    X0002773  OBJ        1.000000000000e+00
    X0002774  C0000067   1.000000000000e+00
    X0002774  C0000119   1.000000000000e+00
    X0002774  OBJ        1.000000000000e+00
    X0002775  C0000067   1.000000000000e+00
    X0002775  C0000115   1.000000000000e+00
    X0002775  OBJ        1.000000000000e+00
    X0002776  C0000067   1.000000000000e+00
    X0002776  C0000096   1.000000000000e+00
    X0002776  OBJ        1.000000000000e+00
    X0002777  C0000067   1.000000000000e+00
    X0002777  C0000093   1.000000000000e+00
    X0002777  OBJ        1.000000000000e+00
    X0002778  C0000067   1.000000000000e+00
    X0002778  C0000091   1.000000000000e+00
    X0002778  OBJ        1.000000000000e+00
    X0002779  C0000067   1.000000000000e+00
    X0002779  C0000069   1.000000000000e+00
    X0002779  OBJ        1.000000000000e+00
    X0002780  C0000067   1.000000000000e+00
    X0002780  C0000079   1.000000000000e+00
    X0002780  OBJ        1.000000000000e+00
    X0002781  C0000067   1.000000000000e+00
    X0002781  C0000075   1.000000000000e+00
    X0002781  OBJ        1.000000000000e+00
    X0002782  C0000067   1.000000000000e+00
    X0002782  C0000083   1.000000000000e+00
    X0002782  OBJ        1.000000000000e+00
    X0002783  C0000070   1.000000000000e+00
    X0002783  C0000085   1.000000000000e+00
    X0002783  OBJ        1.000000000000e+00
    X0002784  C0000066   1.000000000000e+00
    X0002784  C0000070   1.000000000000e+00
    X0002784  OBJ        1.000000000000e+00
    X0002785  C0000064   1.000000000000e+00
    X0002785  C0000070   1.000000000000e+00
    X0002785  OBJ        1.000000000000e+00
    X0002786  C0000070   1.000000000000e+00
    X0002786  C0000113   1.000000000000e+00
    X0002786  OBJ        1.000000000000e+00
    X0002787  C0000070   1.000000000000e+00
    X0002787  C0000107   1.000000000000e+00
    X0002787  OBJ        1.000000000000e+00
    X0002788  C0000070   1.000000000000e+00
    X0002788  C0000119   1.000000000000e+00
    X0002788  OBJ        1.000000000000e+00
    X0002789  C0000070   1.000000000000e+00
    X0002789  C0000115   1.000000000000e+00
    X0002789  OBJ        1.000000000000e+00
    X0002790  C0000070   1.000000000000e+00
    X0002790  C0000096   1.000000000000e+00
    X0002790  OBJ        1.000000000000e+00
    X0002791  C0000070   1.000000000000e+00
    X0002791  C0000093   1.000000000000e+00
    X0002791  OBJ        1.000000000000e+00
    X0002792  C0000070   1.000000000000e+00
    X0002792  C0000091   1.000000000000e+00
    X0002792  OBJ        1.000000000000e+00
    X0002793  C0000069   1.000000000000e+00
    X0002793  C0000070   1.000000000000e+00
    X0002793  OBJ        1.000000000000e+00
    X0002794  C0000070   1.000000000000e+00
    X0002794  C0000079   1.000000000000e+00
    X0002794  OBJ        1.000000000000e+00
    X0002795  C0000070   1.000000000000e+00
    X0002795  C0000075   1.000000000000e+00
    X0002795  OBJ        1.000000000000e+00
    X0002796  C0000070   1.000000000000e+00
    X0002796  C0000083   1.000000000000e+00
    X0002796  OBJ        1.000000000000e+00
    X0002797  C0000072   1.000000000000e+00
    X0002797  C0000085   1.000000000000e+00
    X0002797  OBJ        1.000000000000e+00
    X0002798  C0000066   1.000000000000e+00
    X0002798  C0000072   1.000000000000e+00
    X0002798  OBJ        1.000000000000e+00
    X0002799  C0000064   1.000000000000e+00
    X0002799  C0000072   1.000000000000e+00
    X0002799  OBJ        1.000000000000e+00
    X0002800  C0000072   1.000000000000e+00
    X0002800  C0000113   1.000000000000e+00
    X0002800  OBJ        1.000000000000e+00
    X0002801  C0000072   1.000000000000e+00
    X0002801  C0000107   1.000000000000e+00
    X0002801  OBJ        1.000000000000e+00
    X0002802  C0000072   1.000000000000e+00
    X0002802  C0000115   1.000000000000e+00
    X0002802  OBJ        1.000000000000e+00
    X0002803  C0000072   1.000000000000e+00
    X0002803  C0000096   1.000000000000e+00
    X0002803  OBJ        1.000000000000e+00
    X0002804  C0000072   1.000000000000e+00
    X0002804  C0000093   1.000000000000e+00
    X0002804  OBJ        1.000000000000e+00
    X0002805  C0000072   1.000000000000e+00
    X0002805  C0000091   1.000000000000e+00
    X0002805  OBJ        1.000000000000e+00
    X0002806  C0000072   1.000000000000e+00
    X0002806  C0000079   1.000000000000e+00
    X0002806  OBJ        1.000000000000e+00
    X0002807  C0000072   1.000000000000e+00
    X0002807  C0000075   1.000000000000e+00
    X0002807  OBJ        1.000000000000e+00
    X0002808  C0000072   1.000000000000e+00
    X0002808  C0000083   1.000000000000e+00
    X0002808  OBJ        1.000000000000e+00
    X0002809  C0000060   1.000000000000e+00
    X0002809  C0000085   1.000000000000e+00
    X0002809  OBJ        1.000000000000e+00
    X0002810  C0000060   1.000000000000e+00
    X0002810  C0000066   1.000000000000e+00
    X0002810  OBJ        1.000000000000e+00
    X0002811  C0000060   1.000000000000e+00
    X0002811  C0000064   1.000000000000e+00
    X0002811  OBJ        1.000000000000e+00
    X0002812  C0000060   1.000000000000e+00
    X0002812  C0000113   1.000000000000e+00
    X0002812  OBJ        1.000000000000e+00
    X0002813  C0000060   1.000000000000e+00
    X0002813  C0000123   1.000000000000e+00
    X0002813  OBJ        1.000000000000e+00
    X0002814  C0000060   1.000000000000e+00
    X0002814  C0000107   1.000000000000e+00
    X0002814  OBJ        1.000000000000e+00
    X0002815  C0000060   1.000000000000e+00
    X0002815  C0000119   1.000000000000e+00
    X0002815  OBJ        1.000000000000e+00
    X0002816  C0000060   1.000000000000e+00
    X0002816  C0000115   1.000000000000e+00
    X0002816  OBJ        1.000000000000e+00
    X0002817  C0000060   1.000000000000e+00
    X0002817  C0000096   1.000000000000e+00
    X0002817  OBJ        1.000000000000e+00
    X0002818  C0000060   1.000000000000e+00
    X0002818  C0000093   1.000000000000e+00
    X0002818  OBJ        1.000000000000e+00
    X0002819  C0000060   1.000000000000e+00
    X0002819  C0000091   1.000000000000e+00
    X0002819  OBJ        1.000000000000e+00
    X0002820  C0000060   1.000000000000e+00
    X0002820  C0000069   1.000000000000e+00
    X0002820  OBJ        1.000000000000e+00
    X0002821  C0000060   1.000000000000e+00
    X0002821  C0000079   1.000000000000e+00
    X0002821  OBJ        1.000000000000e+00
    X0002822  C0000060   1.000000000000e+00
    X0002822  C0000075   1.000000000000e+00
    X0002822  OBJ        1.000000000000e+00
    X0002823  C0000060   1.000000000000e+00
    X0002823  C0000083   1.000000000000e+00
    X0002823  OBJ        1.000000000000e+00
    X0002824  C0000059   1.000000000000e+00
    X0002824  C0000060   1.000000000000e+00
    X0002824  OBJ        1.000000000000e+00
    X0002825  C0000068   1.000000000000e+00
    X0002825  C0000077   1.000000000000e+00
    X0002825  OBJ        1.000000000000e+00
    X0002826  C0000068   1.000000000000e+00
    X0002826  C0000081   1.000000000000e+00
    X0002826  OBJ        1.000000000000e+00
    X0002827  C0000068   1.000000000000e+00
    X0002827  C0000087   1.000000000000e+00
    X0002827  OBJ        1.000000000000e+00
    X0002828  C0000062   1.000000000000e+00
    X0002828  C0000068   1.000000000000e+00
    X0002828  OBJ        1.000000000000e+00
    X0002829  C0000068   1.000000000000e+00
    X0002829  C0000133   1.000000000000e+00
    X0002829  OBJ        1.000000000000e+00
    X0002830  C0000062   1.000000000000e+00
    X0002830  C0000078   1.000000000000e+00
    X0002830  OBJ        1.000000000000e+00
    X0002831  C0000074   1.000000000000e+00
    X0002831  C0000081   1.000000000000e+00
    X0002831  OBJ        1.000000000000e+00
    X0002832  C0000074   1.000000000000e+00
    X0002832  C0000087   1.000000000000e+00
    X0002832  OBJ        1.000000000000e+00
    X0002833  C0000062   1.000000000000e+00
    X0002833  C0000074   1.000000000000e+00
    X0002833  OBJ        1.000000000000e+00
    X0002834  C0000074   1.000000000000e+00
    X0002834  C0000133   1.000000000000e+00
    X0002834  OBJ        1.000000000000e+00
    X0002835  C0000082   1.000000000000e+00
    X0002835  C0000267   1.000000000000e+00
    X0002835  OBJ        1.000000000000e+00
    X0002836  C0000082   1.000000000000e+00
    X0002836  C0000271   1.000000000000e+00
    X0002836  OBJ        1.000000000000e+00
    X0002837  C0000082   1.000000000000e+00
    X0002837  C0000275   1.000000000000e+00
    X0002837  OBJ        1.000000000000e+00
    X0002838  C0000082   1.000000000000e+00
    X0002838  C0000279   1.000000000000e+00
    X0002838  OBJ        1.000000000000e+00
    X0002839  C0000082   1.000000000000e+00
    X0002839  C0000281   1.000000000000e+00
    X0002839  OBJ        1.000000000000e+00
    X0002840  C0000082   1.000000000000e+00
    X0002840  C0000197   1.000000000000e+00
    X0002840  OBJ        1.000000000000e+00
    X0002841  C0000058   1.000000000000e+00
    X0002841  C0000077   1.000000000000e+00
    X0002841  OBJ        1.000000000000e+00
    X0002842  C0000058   1.000000000000e+00
    X0002842  C0000081   1.000000000000e+00
    X0002842  OBJ        1.000000000000e+00
    X0002843  C0000058   1.000000000000e+00
    X0002843  C0000087   1.000000000000e+00
    X0002843  OBJ        1.000000000000e+00
    X0002844  C0000058   1.000000000000e+00
    X0002844  C0000062   1.000000000000e+00
    X0002844  OBJ        1.000000000000e+00
    X0002845  C0000058   1.000000000000e+00
    X0002845  C0000133   1.000000000000e+00
    X0002845  OBJ        1.000000000000e+00
RHS
    RHS       C0000000   1.000000000000e+00
    RHS       C0000001   1.000000000000e+00
    RHS       C0000002   1.000000000000e+00
    RHS       C0000003   1.000000000000e+00
    RHS       C0000004   1.000000000000e+00
    RHS       C0000005   1.000000000000e+00
    RHS       C0000006   1.000000000000e+00
    RHS       C0000007   1.000000000000e+00
    RHS       C0000008   1.000000000000e+00
    RHS       C0000009   1.000000000000e+00
    RHS       C0000010   1.000000000000e+00
    RHS       C0000011   1.000000000000e+00
    RHS       C0000012   1.000000000000e+00
    RHS       C0000013   1.000000000000e+00
    RHS       C0000014   1.000000000000e+00
    RHS       C0000015   1.000000000000e+00
    RHS       C0000016   1.000000000000e+00
    RHS       C0000017   1.000000000000e+00
    RHS       C0000018   1.000000000000e+00
    RHS       C0000019   1.000000000000e+00
    RHS       C0000020   1.000000000000e+00
    RHS       C0000021   1.000000000000e+00
    RHS       C0000022   1.000000000000e+00
    RHS       C0000023   1.000000000000e+00
    RHS       C0000024   1.000000000000e+00
    RHS       C0000025   1.000000000000e+00
    RHS       C0000026   1.000000000000e+00
    RHS       C0000027   1.000000000000e+00
    RHS       C0000028   1.000000000000e+00
    RHS       C0000029   1.000000000000e+00
    RHS       C0000030   1.000000000000e+00
    RHS       C0000031   1.000000000000e+00
    RHS       C0000032   1.000000000000e+00
    RHS       C0000033   1.000000000000e+00
    RHS       C0000034   1.000000000000e+00
    RHS       C0000035   1.000000000000e+00
    RHS       C0000036   1.000000000000e+00
    RHS       C0000037   1.000000000000e+00
    RHS       C0000038   1.000000000000e+00
    RHS       C0000039   1.000000000000e+00
    RHS       C0000040   1.000000000000e+00
    RHS       C0000041   1.000000000000e+00
    RHS       C0000042   1.000000000000e+00
    RHS       C0000043   1.000000000000e+00
    RHS       C0000044   1.000000000000e+00
    RHS       C0000045   1.000000000000e+00
    RHS       C0000046   1.000000000000e+00
    RHS       C0000047   1.000000000000e+00
    RHS       C0000048   1.000000000000e+00
    RHS       C0000049   1.000000000000e+00
    RHS       C0000050   1.000000000000e+00
    RHS       C0000051   1.000000000000e+00
    RHS       C0000052   1.000000000000e+00
    RHS       C0000053   1.000000000000e+00
    RHS       C0000054   1.000000000000e+00
    RHS       C0000055   1.000000000000e+00
    RHS       C0000056   1.000000000000e+00
    RHS       C0000057   1.000000000000e+00
    RHS       C0000058   1.000000000000e+00
    RHS       C0000059   1.000000000000e+00
    RHS       C0000060   1.000000000000e+00
    RHS       C0000061   1.000000000000e+00
    RHS       C0000062   1.000000000000e+00
    RHS       C0000063   1.000000000000e+00
    RHS       C0000064   1.000000000000e+00
    RHS       C0000065   1.000000000000e+00
    RHS       C0000066   1.000000000000e+00
    RHS       C0000067   1.000000000000e+00
    RHS       C0000068   1.000000000000e+00
    RHS       C0000069   1.000000000000e+00
    RHS       C0000070   1.000000000000e+00
    RHS       C0000071   1.000000000000e+00
    RHS       C0000072   1.000000000000e+00
    RHS       C0000073   1.000000000000e+00
    RHS       C0000074   1.000000000000e+00
    RHS       C0000075   1.000000000000e+00
    RHS       C0000076   1.000000000000e+00
    RHS       C0000077   1.000000000000e+00
    RHS       C0000078   1.000000000000e+00
    RHS       C0000079   1.000000000000e+00
    RHS       C0000080   1.000000000000e+00
    RHS       C0000081   1.000000000000e+00
    RHS       C0000082   1.000000000000e+00
    RHS       C0000083   1.000000000000e+00
    RHS       C0000084   1.000000000000e+00
    RHS       C0000085   1.000000000000e+00
    RHS       C0000086   1.000000000000e+00
    RHS       C0000087   1.000000000000e+00
    RHS       C0000088   1.000000000000e+00
    RHS       C0000089   1.000000000000e+00
    RHS       C0000090   1.000000000000e+00
    RHS       C0000091   1.000000000000e+00
    RHS       C0000092   1.000000000000e+00
    RHS       C0000093   1.000000000000e+00
    RHS       C0000094   1.000000000000e+00
    RHS       C0000095   1.000000000000e+00
    RHS       C0000096   1.000000000000e+00
    RHS       C0000097   1.000000000000e+00
    RHS       C0000098   1.000000000000e+00
    RHS       C0000099   1.000000000000e+00
    RHS       C0000100   1.000000000000e+00
    RHS       C0000101   1.000000000000e+00
    RHS       C0000102   1.000000000000e+00
    RHS       C0000103   1.000000000000e+00
    RHS       C0000104   1.000000000000e+00
    RHS       C0000105   1.000000000000e+00
    RHS       C0000106   1.000000000000e+00
    RHS       C0000107   1.000000000000e+00
    RHS       C0000108   1.000000000000e+00
    RHS       C0000109   1.000000000000e+00
    RHS       C0000110   1.000000000000e+00
    RHS       C0000111   1.000000000000e+00
    RHS       C0000112   1.000000000000e+00
    RHS       C0000113   1.000000000000e+00
    RHS       C0000114   1.000000000000e+00
    RHS       C0000115   1.000000000000e+00
    RHS       C0000116   1.000000000000e+00
    RHS       C0000117   1.000000000000e+00
    RHS       C0000118   1.000000000000e+00
    RHS       C0000119   1.000000000000e+00
    RHS       C0000120   1.000000000000e+00
    RHS       C0000121   1.000000000000e+00
    RHS       C0000122   1.000000000000e+00
    RHS       C0000123   1.000000000000e+00
    RHS       C0000124   1.000000000000e+00
    RHS       C0000125   1.000000000000e+00
    RHS       C0000126   1.000000000000e+00
    RHS       C0000127   1.000000000000e+00
    RHS       C0000128   1.000000000000e+00
    RHS       C0000129   1.000000000000e+00
    RHS       C0000130   1.000000000000e+00
    RHS       C0000131   1.000000000000e+00
    RHS       C0000132   1.000000000000e+00
    RHS       C0000133   1.000000000000e+00
    RHS       C0000134   1.000000000000e+00
    RHS       C0000135   1.000000000000e+00
    RHS       C0000136   1.000000000000e+00
    RHS       C0000137   1.000000000000e+00
    RHS       C0000138   1.000000000000e+00
    RHS       C0000139   1.000000000000e+00
    RHS       C0000140   1.000000000000e+00
    RHS       C0000141   1.000000000000e+00
    RHS       C0000142   1.000000000000e+00
    RHS       C0000143   1.000000000000e+00
    RHS       C0000144   1.000000000000e+00
    RHS       C0000145   1.000000000000e+00
    RHS       C0000146   1.000000000000e+00
    RHS       C0000147   1.000000000000e+00
    RHS       C0000148   1.000000000000e+00
    RHS       C0000149   1.000000000000e+00
    RHS       C0000150   1.000000000000e+00
    RHS       C0000151   1.000000000000e+00
    RHS       C0000152   1.000000000000e+00
    RHS       C0000153   1.000000000000e+00
    RHS       C0000154   1.000000000000e+00
    RHS       C0000155   1.000000000000e+00
    RHS       C0000156   1.000000000000e+00
    RHS       C0000157   1.000000000000e+00
    RHS       C0000158   1.000000000000e+00
    RHS       C0000159   1.000000000000e+00
    RHS       C0000160   1.000000000000e+00
    RHS       C0000161   1.000000000000e+00
    RHS       C0000162   1.000000000000e+00
    RHS       C0000163   1.000000000000e+00
    RHS       C0000164   1.000000000000e+00
    RHS       C0000165   1.000000000000e+00
    RHS       C0000166   1.000000000000e+00
    RHS       C0000167   1.000000000000e+00
    RHS       C0000168   1.000000000000e+00
    RHS       C0000169   1.000000000000e+00
    RHS       C0000170   1.000000000000e+00
    RHS       C0000171   1.000000000000e+00
    RHS       C0000172   1.000000000000e+00
    RHS       C0000173   1.000000000000e+00
    RHS       C0000174   1.000000000000e+00
    RHS       C0000175   1.000000000000e+00
    RHS       C0000176   1.000000000000e+00
    RHS       C0000177   1.000000000000e+00
    RHS       C0000178   1.000000000000e+00
    RHS       C0000179   1.000000000000e+00
    RHS       C0000180   1.000000000000e+00
    RHS       C0000181   1.000000000000e+00
    RHS       C0000182   1.000000000000e+00
    RHS       C0000183   1.000000000000e+00
    RHS       C0000184   1.000000000000e+00
    RHS       C0000185   1.000000000000e+00
    RHS       C0000186   1.000000000000e+00
    RHS       C0000187   1.000000000000e+00
    RHS       C0000188   1.000000000000e+00
    RHS       C0000189   1.000000000000e+00
    RHS       C0000190   1.000000000000e+00
    RHS       C0000191   1.000000000000e+00
    RHS       C0000192   1.000000000000e+00
    RHS       C0000193   1.000000000000e+00
    RHS       C0000194   1.000000000000e+00
    RHS       C0000195   1.000000000000e+00
    RHS       C0000196   1.000000000000e+00
    RHS       C0000197   1.000000000000e+00
    RHS       C0000198   1.000000000000e+00
    RHS       C0000199   1.000000000000e+00
    RHS       C0000200   1.000000000000e+00
    RHS       C0000201   1.000000000000e+00
    RHS       C0000202   1.000000000000e+00
    RHS       C0000203   1.000000000000e+00
    RHS       C0000204   1.000000000000e+00
    RHS       C0000205   1.000000000000e+00
    RHS       C0000206   1.000000000000e+00
    RHS       C0000207   1.000000000000e+00
    RHS       C0000208   1.000000000000e+00
    RHS       C0000209   1.000000000000e+00
    RHS       C0000210   1.000000000000e+00
    RHS       C0000211   1.000000000000e+00
    RHS       C0000212   1.000000000000e+00
    RHS       C0000213   1.000000000000e+00
    RHS       C0000214   1.000000000000e+00
    RHS       C0000215   1.000000000000e+00
    RHS       C0000216   1.000000000000e+00
    RHS       C0000217   1.000000000000e+00
    RHS       C0000218   1.000000000000e+00
    RHS       C0000219   1.000000000000e+00
    RHS       C0000220   1.000000000000e+00
    RHS       C0000221   1.000000000000e+00
    RHS       C0000222   1.000000000000e+00
    RHS       C0000223   1.000000000000e+00
    RHS       C0000224   1.000000000000e+00
    RHS       C0000225   1.000000000000e+00
    RHS       C0000226   1.000000000000e+00
    RHS       C0000227   1.000000000000e+00
    RHS       C0000228   1.000000000000e+00
    RHS       C0000229   1.000000000000e+00
    RHS       C0000230   1.000000000000e+00
    RHS       C0000231   1.000000000000e+00
    RHS       C0000232   1.000000000000e+00
    RHS       C0000233   1.000000000000e+00
    RHS       C0000234   1.000000000000e+00
    RHS       C0000235   1.000000000000e+00
    RHS       C0000236   1.000000000000e+00
    RHS       C0000237   1.000000000000e+00
    RHS       C0000238   1.000000000000e+00
    RHS       C0000239   1.000000000000e+00
    RHS       C0000240   1.000000000000e+00
    RHS       C0000241   1.000000000000e+00
    RHS       C0000242   1.000000000000e+00
    RHS       C0000243   1.000000000000e+00
    RHS       C0000244   1.000000000000e+00
    RHS       C0000245   1.000000000000e+00
    RHS       C0000246   1.000000000000e+00
    RHS       C0000247   1.000000000000e+00
    RHS       C0000248   1.000000000000e+00
    RHS       C0000249   1.000000000000e+00
    RHS       C0000250   1.000000000000e+00
    RHS       C0000251   1.000000000000e+00
    RHS       C0000252   1.000000000000e+00
    RHS       C0000253   1.000000000000e+00
    RHS       C0000254   1.000000000000e+00
    RHS       C0000255   1.000000000000e+00
    RHS       C0000256   1.000000000000e+00
    RHS       C0000257   1.000000000000e+00
    RHS       C0000258   1.000000000000e+00
    RHS       C0000259   1.000000000000e+00
    RHS       C0000260   1.000000000000e+00
    RHS       C0000261   1.000000000000e+00
    RHS       C0000262   1.000000000000e+00
    RHS       C0000263   1.000000000000e+00
    RHS       C0000264   1.000000000000e+00
    RHS       C0000265   1.000000000000e+00
    RHS       C0000266   1.000000000000e+00
    RHS       C0000267   1.000000000000e+00
    RHS       C0000268   1.000000000000e+00
    RHS       C0000269   1.000000000000e+00
    RHS       C0000270   1.000000000000e+00
    RHS       C0000271   1.000000000000e+00
    RHS       C0000272   1.000000000000e+00
    RHS       C0000273   1.000000000000e+00
    RHS       C0000274   1.000000000000e+00
    RHS       C0000275   1.000000000000e+00
    RHS       C0000276   1.000000000000e+00
    RHS       C0000277   1.000000000000e+00
    RHS       C0000278   1.000000000000e+00
    RHS       C0000279   1.000000000000e+00
    RHS       C0000280   1.000000000000e+00
    RHS       C0000281   1.000000000000e+00
    RHS       C0000282   1.000000000000e+00
    RHS       C0000283   1.000000000000e+00
    RHS       C0000284   1.000000000000e+00
    RHS       C0000285   1.000000000000e+00
    RHS       C0000286   1.000000000000e+00
    RHS       C0000287   1.000000000000e+00
    RHS       C0000288   1.000000000000e+00
    RHS       C0000289   1.000000000000e+00
    RHS       C0000290   1.000000000000e+00
    RHS       C0000291   1.000000000000e+00
    RHS       C0000292   1.000000000000e+00
    RHS       C0000293   1.000000000000e+00
    RHS       C0000294   1.000000000000e+00
    RHS       C0000295   1.000000000000e+00
    RHS       C0000296   1.000000000000e+00
    RHS       C0000297   1.000000000000e+00
    RHS       C0000298   1.000000000000e+00
    RHS       C0000299   1.000000000000e+00
    RHS       C0000300   1.000000000000e+00
    RHS       C0000301   1.000000000000e+00
    RHS       C0000302   1.000000000000e+00
    RHS       C0000303   1.000000000000e+00
    RHS       C0000304   1.000000000000e+00
    RHS       C0000305   1.000000000000e+00
    RHS       C0000306   1.000000000000e+00
BOUNDS
ENDATA
